6
Properties=species:S:1:pos:R:3:forces:R:3 charge=-1.0 dipole_moment="-2.955364760873257 -3.5297654558518836 -1.8790288981306154" energy=-12.589484457666833 pbc="F F F"
C       -4.34050500      -4.52876500      -2.13831600       4.63901607      -3.96181419      -0.02414935
H       -4.08384500      -3.63142800      -2.56795500      -0.18993512       2.53344697       0.23107689
H       -3.57386400      -4.97783900      -1.35908900      -2.54550236       1.61474958      -0.96466255
H       -5.32423200      -4.91048200      -2.22702000      -0.62870059      -0.27342039       0.10778168
Cl      -3.19461800      -5.37551500      -3.58155500      -1.26940618       0.08791374       0.64815870
Br       2.66667100       3.77360300       2.28201100      -0.00478894      -0.00141102       0.00124390
6
Properties=species:S:1:pos:R:3:forces:R:3 charge=-1.0 dipole_moment="-1.7656209301346784 -2.525350067796974 -2.2045998851579127" energy=-13.032299866801864 pbc="F F F"
C       -2.71638900      -3.18082800      -2.58737800       2.84220769       1.35605082       1.76383604
H       -2.94189100      -2.11243200      -2.83749300       1.22578484      -0.81578795       0.21760379
H       -2.38043400      -3.32997100      -1.43104800      -0.28603473       0.41547590      -3.26731958
H       -3.63941300      -3.59247300      -2.68784400      -2.38726535      -1.99897784      -0.46916620
Cl      -1.55008000      -3.97538500      -3.87531900      -1.38359916       1.04707927       1.75494979
Br       1.47461300       2.73432600       2.52460200      -0.01047056      -0.00414719      -0.00050085
6
Properties=species:S:1:pos:R:3:forces:R:3 charge=-1.0 dipole_moment="-0.2078068322339993 1.6977253773104954 -8.606078297614333" energy=-11.694296629516181 pbc="F F F"
C       -1.00607700       1.36180600      -3.72580200      -2.70145264      -2.46536467       5.35723837
H       -1.98447300       1.44395100      -3.21412200       0.34401517      -0.42140333      -0.50204701
H       -0.92053400       0.48246300      -4.21377100       0.35903504      -1.47999702      -3.12316347
H       -0.66529600       2.29052500      -3.71183500       2.45123389       3.52419954      -1.30425234
I        0.18926500       0.25104300      -2.05349200      -0.45160093       0.84291001      -0.43226829
Cl      -0.02495800      -1.51135600       8.37233100      -0.00101661      -0.00050137       0.00502754
6
Properties=species:S:1:pos:R:3:forces:R:3 charge=-1.0 dipole_moment="-0.472089573088214 1.5107374348944989 -5.726919817657164" energy=-13.415359229108118 pbc="F F F"
C        0.11502300       0.55235100      -4.35664500      -1.55386122      -1.91403630       0.63187487
H       -0.24400800      -0.49738500      -4.20693700       0.79927119       0.78461384      -0.36908703
H        1.13868400       0.67691100      -4.12338800       1.04484087      -0.07351864      -0.61294076
H       -0.29964600       0.92081700      -5.26201400       0.62381961       0.12705981      -1.12751007
Cl      -0.72840200       1.46456100      -3.15422600      -0.91841354       1.08213575       1.47508622
Cl       0.65280400      -1.72423400       5.49141500       0.00358720      -0.00540652       0.00323599
6
Properties=species:S:1:pos:R:3:forces:R:3 charge=-1.0 dipole_moment="0.0003847118320799125 0.00024395069406993075 -1.3663180948278892" energy=-13.892935549270188 pbc="F F F"
C        0.00073800       0.00096300      -2.90733800       0.04594665       0.01146969       0.13623300
H        0.00176400       1.02625200      -2.56134500      -0.00183628       0.01467072      -0.00035790
H       -0.88618900      -0.51082400      -2.56157900      -0.04891164      -0.02660218       0.02011528
H        0.88879300      -0.51205500      -2.56157500       0.00523477      -0.00353938       0.00331467
Cl       0.00048300      -0.00081200      -4.69860600      -0.00045817       0.00394047      -0.05814962
I       -0.00032100       0.00008800       1.98122300       0.00002674       0.00005194      -0.10250115
6
Properties=species:S:1:pos:R:3:forces:R:3 charge=-1.0 dipole_moment="1.9537307282370704 -2.95877424964092 0.14681862953930602" energy=-12.969379636048377 pbc="F F F"
C        2.01736300      -4.13464200      -0.64341300       2.00224005      -1.10829004      -1.05683866
H        2.56968400      -5.15997800      -0.77013800      -1.00423800       2.24446113       0.07350990
H        2.21312200      -3.39151700      -1.43054200       0.01912130      -0.91663794      -0.06241148
H        0.97329000      -4.29376700      -0.59197800      -0.96631320      -0.11264312       0.46801794
Br       2.71658300      -3.22027800       0.89215800      -0.04629220      -0.10341595       0.58665791
I       -2.13095600       2.83703500      -0.46363000      -0.00484036      -0.00392865      -0.00984630
6
Properties=species:S:1:pos:R:3:forces:R:3 charge=-1.0 dipole_moment="0.26478969262193486 -0.45039542416393874 10.935466106681359" energy=-11.873613391412206 pbc="F F F"
C        1.32255800      -0.94693200       2.18678400       0.21985865       2.63426302      -1.23599212
H        2.09387300      -1.23313800       2.84571700       0.66394219      -0.00783672       0.99977662
H        1.43844900       0.14241900       1.84078400       1.68277326      -2.59866044      -1.02502126
H        1.20544100      -1.74877200       1.45020500      -0.92274123       0.69250303       0.10838692
I       -0.23919100       0.05534100       3.20379400      -1.64609082      -0.71895043       1.15162907
Cl       0.00023500       0.32870500     -11.12108900       0.00161825      -0.00099862       0.00149330
6
Properties=species:S:1:pos:R:3:forces:R:3 charge=-1.0 dipole_moment="0.00022331278285794097 0.00045826746434828643 -0.974782522617756" energy=-15.485909279058177 pbc="F F F"
C        0.00079200       0.00087100      -3.75125100       0.04460402       0.00520854       0.05854711
H        0.00181900       1.02807400      -3.39976500      -0.00183782       0.01338208      -0.00347665
H       -0.88779300      -0.51187300      -3.40000300      -0.04624232      -0.02457769       0.02052152
H        0.89050600      -0.51310400      -3.39999900       0.00391888      -0.00229445       0.00373736
F        0.00053800      -0.00090400      -5.14621100      -0.00045046       0.00826096      -0.00337946
I       -0.00026700      -0.00000400       1.49100300       0.00000977       0.00004679      -0.07500886
6
Properties=species:S:1:pos:R:3:forces:R:3 charge=-1.0 dipole_moment="1.4411315813257735 0.17940377463419568 -2.094986117761719" energy=-13.508733136435403 pbc="F F F"
C        3.80953900       0.11955100      -6.21296400       1.65466185       5.03868123      -0.67566848
H        4.31043800       0.51285300      -5.23874500      -1.56846972      -1.83201398      -0.90755115
H        3.46370200       1.13347200      -6.61631800       0.61492153      -1.30117422       0.22603547
H        4.89391900      -0.00555000      -6.92790100      -3.87578610      -1.48584371       1.52736189
F        2.52250500      -0.52495300      -6.11716200       3.17187199      -0.42406185      -0.17797692
I       -1.09863800       0.04465100       2.09651300       0.00209545       0.00400167       0.00724383
6
Properties=species:S:1:pos:R:3:forces:R:3 charge=-1.0 dipole_moment="1.5103193848981533 2.052837152940309 -2.350054825025596" energy=-12.635384405955318 pbc="F F F"
C        1.72511700       3.02943100      -2.81609100       4.61315334      -3.95325910       0.01372249
H        1.98177700       3.92676800      -3.24573000      -0.19410082       2.52212024       0.21868211
H        2.49175800       2.58035800      -2.03686400      -2.57473427       1.59148521      -0.96028242
H        0.74139000       2.64771500      -2.90479500      -0.62687974      -0.29706940       0.12955481
Cl       2.87100400       2.18268100      -4.25933100      -1.22033821       0.11955682       0.60560283
Br      -1.83922000      -1.84105700       2.78550200       0.00356972       0.01660727      -0.00782387
6
Properties=species:S:1:pos:R:3:forces:R:3 charge=-1.0 dipole_moment="5.9300127392994595 0.53414089279893 0.12120274830754217" energy=-13.145541887141304 pbc="F F F"
C        8.35426300       0.23145900       0.14906700       2.21599799       1.76510410       2.11264529
H        8.11378000      -0.72714300       0.69935400      -0.17843457       1.57414312      -0.71205113
H        9.41908900       0.65632700       0.46583300      -2.46058345      -0.95395648       0.04551624
H        8.52635300       0.15225300      -0.87674900      -0.43506771      -0.77936262      -1.65378459
Cl       7.16861800       1.67428500       0.29294200       0.86006493      -1.60310865       0.20816424
Br      -5.65860900      -0.85523000      -0.17608200      -0.00242352      -0.00226411      -0.00032756
6
Properties=species:S:1:pos:R:3:forces:R:3 charge=-1.0 dipole_moment="2.9321444648737156 3.838487440494829 -2.3912142284632516" energy=-13.29567992453563 pbc="F F F"
C        4.33455000       4.84149600      -2.96903800      -0.21480694       1.33073111      -3.43910630
H        3.84922100       4.10351100      -2.35621200       0.03549460       0.40474412       0.73857515
H        5.12518000       5.55311100      -2.65527300      -0.70819756      -1.07629832       0.48122519
H        4.64524800       4.33651400      -3.92835000      -0.03776899       0.45873009       1.27453913
Cl       3.02091900       6.04614600      -3.70618000       0.92042209      -1.11760926       0.94481518
Br      -2.59950200      -4.16647400       2.56454600       0.00408188       0.00033373      -0.00044069
6
Properties=species:S:1:pos:R:3:forces:R:3 charge=-1.0 dipole_moment="0.0349828470359544 -0.2634413490894182 -2.073103052573272" energy=-13.851977197210143 pbc="F F F"
C        0.33623100      -0.34995300      -6.49038300       9.33164068       8.50446633       6.60273071
H       -0.26692000       0.17796500      -5.60101200       2.10986387      -1.08440655      -1.34494108
H        1.39908300      -0.78912000      -6.24651000      -2.88101850       0.12358522       0.18273963
H       -0.32615800      -0.85266500      -6.82953700      -7.55641671      -6.93048828      -5.40307805
F        0.76384600       0.70654900      -7.34769000      -1.00151778      -0.60794047      -0.02725987
I       -0.18298100      -0.05274400       2.33487900      -0.00206768      -0.00497457      -0.00938093
6
Properties=species:S:1:pos:R:3:forces:R:3 charge=-1.0 dipole_moment="0.0004921348058243723 0.00020108734001425963 -3.5895730641898096" energy=-13.739954032060353 pbc="F F F"
C        0.00064300       0.00098900      -4.32971300       0.04573324       0.01135811      -0.03460911
H        0.00167000       1.02842200      -3.98762200      -0.00183011       0.01409582      -0.00040058
H       -0.88814000      -0.51187000      -3.98785500      -0.04833314      -0.02622165       0.01993016
H        0.89055500      -0.51310100      -3.98785100       0.00486350      -0.00327044       0.00340054
Cl       0.00038900      -0.00078700      -6.11756800      -0.00043554       0.00402635       0.02722387
Br      -0.00041600       0.00011400       4.05543600       0.00000360       0.00000823      -0.01713486
6
Properties=species:S:1:pos:R:3:forces:R:3 charge=-1.0 dipole_moment="-0.0002661761369136121 0.0009318810678029243 8.630612540627704" energy=-12.885210032718895 pbc="F F F"
C        0.00073800       0.00096300       0.67666200       0.04461584       0.01172629      -0.03439622
H        0.00176400       1.03228100       0.34765300      -0.00182137      -0.00498588       0.00822856
H       -0.89141100      -0.51383800       0.34741600      -0.02955072      -0.01508261      -0.00571916
H        0.89401500      -0.51506900       0.34741900      -0.01387727       0.00788712       0.01244825
Cl       0.00048300      -0.00081200      -9.05874400       0.00000257       0.00000360       0.01063460
I       -0.00032100       0.00008800       2.80936200       0.00063146       0.00046434       0.00958919
6
Properties=species:S:1:pos:R:3:forces:R:3 charge=-1.0 dipole_moment="-2.2285477998219796 4.092754444284702 1.2184993203606176" energy=-12.212763578233533 pbc="F F F"
C       -2.24628600       2.46409300       0.00786900       5.81284868       3.13345508      -2.30103620
H       -2.35491400       3.04565300      -0.94737500      -1.50123948      -0.77598779       1.16867600
H       -2.79842000       1.67034200       0.35450800      -1.51550756      -1.39847248       0.40151070
H       -1.12028900       2.19514000      -0.25984900      -2.32515469      -0.29730851       1.22739898
I       -1.86779100       4.00552700       1.54918400      -0.46056791      -0.67251065      -0.49441238
I        2.24045800      -4.41488000      -1.53398500      -0.01045873       0.01115910      -0.00197204
6
Properties=species:S:1:pos:R:3:forces:R:3 charge=-1.0 dipole_moment="0.0005736280962512038 -0.00012911923937757724 -6.945054534919702" energy=-12.868231971330832 pbc="F F F"
C        0.00058700       0.00121700      -4.47772000       0.04637396       0.01424957      -0.04381160
H        0.00161300       1.03254100      -4.15049400      -0.00182086       0.01257321       0.00078779
H       -0.89156600      -0.51358600      -4.15072700      -0.04806678      -0.02623657       0.01870015
H        0.89386800      -0.51481700      -4.15072300       0.00381963      -0.00282410       0.00256288
I        0.00033200      -0.00055800      -6.61288600      -0.00030802       0.00225074       0.02688808
I       -0.00047200       0.00034200       7.35474100       0.00000154       0.00000206      -0.00591971
6
Properties=species:S:1:pos:R:3:forces:R:3 charge=-1.0 dipole_moment="-7.5803206634801725 1.3306425548233067 4.402796726068004" energy=-12.77519551627922 pbc="F F F"
C       -4.12642300       0.04925000       1.61950600      -3.47944897       0.35568078      -1.15156428
H       -4.52585800      -0.41934600       2.48859300       0.47771306      -0.84004323       0.74017026
H       -4.01580100      -0.60913200       0.77351600      -0.93490357      -0.42963137      -0.02142243
H       -4.94065000       0.81896400       1.44238600       1.38239177      -0.53111642      -0.34746405
Br      -2.44476600       0.70880200       1.74606500       2.55329744       1.44726431       0.78232299
Cl       7.28280400      -1.46435600      -4.44316600       0.00205123      -0.00162648      -0.00256853
6
Properties=species:S:1:pos:R:3:forces:R:3 charge=-1.0 dipole_moment="-4.175724139129007 -6.776594674177178 5.478846303939729" energy=-12.743893140455373 pbc="F F F"
C       -1.22323400      -1.86413700      -0.61447900      -0.05552246      -1.45752610       0.81307750
H       -0.40469000      -2.29499700      -1.18419800       0.15819690       0.40517504       0.06963268
H       -1.89181800      -1.30346800      -1.24390200      -0.05386873       0.45154951       0.10631307
H       -1.74233200      -2.71456200      -0.13612100       0.04268803       0.56225557      -0.45995753
I       -0.47659100      -0.79278500       1.09743000      -0.09054140       0.03947312      -0.52464084
F        4.07084200       6.61283100      -5.76807800      -0.00137040      -0.00143056      -0.00394304
6
Properties=species:S:1:pos:R:3:forces:R:3 charge=-1.0 dipole_moment="7.283245869241737 -6.4068860743711715 3.670415466647647" energy=-12.041182742817831 pbc="F F F"
C        1.46243900      -3.02331000       1.83272800       1.57208469      -2.25179289       0.71017166
H        0.81282200      -3.02087200       0.89649000       0.97651894       0.02641757       1.83164734
H        1.18646900      -2.57516400       2.77028200      -0.49760980       2.02866997      -0.58144628
H        1.58743500      -4.03776500       2.46446300       0.35845912       1.27360942      -2.85731755
Br       3.39918700      -2.23987300       1.21593400      -2.40929816      -1.07488884       0.89574773
Cl      -7.72546400       6.24524800      -3.51090000      -0.00082070      -0.00221218       0.00133749
6
Properties=species:S:1:pos:R:3:forces:R:3 charge=-1.0 dipole_moment="1.5674176059179918 -5.954471309971721 -0.4611620636900706" energy=-13.085103118896793 pbc="F F F"
C        2.49778800      -8.44360600      -0.77966500      -2.74233472      -4.88486600      -2.87907988
H        2.04256000      -9.36483400      -0.37719700       0.55689019       0.18641065       0.25000432
H        3.40906100      -8.33222300      -0.41061700       4.08073492       0.50405401       1.34248310
H        2.47973300      -8.71366700      -1.86132300       0.37815274       0.90582954       0.56407539
Cl       1.49272500      -7.21533600      -0.36286500      -2.27382776       3.28608195       0.72252118
Br      -1.37984000       5.70665900       0.38559500      -0.00019695       0.00285444      -0.00007148
6
Properties=species:S:1:pos:R:3:forces:R:3 charge=-1.0 dipole_moment="-4.9629831919936755 5.904570428192761 -6.944758724858999" energy=-11.41638254340195 pbc="F F F"
C       -1.03692500       2.17902200      -0.33074800       4.62888181       5.74371788      -2.94202152
H       -0.96103100       3.53317600      -0.58474900      -1.00238424      -4.07262411       1.30266083
H        0.12463200       2.11625400      -0.34464900      -2.20811344      -0.66831564       0.82621275
H       -1.53944800       1.93036600       0.55571800      -0.83908832      -0.55501894       0.68264131
I       -1.47021000       1.47166800      -2.27621200      -0.57832959      -0.45078178       0.13000116
Cl       5.08932700      -5.80307900       7.23514000      -0.00103615       0.00299431      -0.00009770
6
Properties=species:S:1:pos:R:3:forces:R:3 charge=-1.0 dipole_moment="-5.775572370396403 -7.366517195096064 1.2258495918153494" energy=-12.024056906268756 pbc="F F F"
C       -1.53873000      -2.56365300       1.39709400       2.77509829      -2.03490592       0.58092075
H       -0.62023000      -3.00750000       2.09413200      -1.56734512       2.14229834      -2.04976227
H       -1.74057400      -3.58315900       0.88083900      -0.82429214       2.36981527       0.60898023
H       -2.20325700      -2.06296400       2.13319600      -0.04870081      -0.62172313      -1.24825577
Br      -1.07283700      -1.13743200      -0.14864100      -0.33856238      -1.86008066       2.10753342
F        5.70508300       7.09396100      -0.92092100       0.00425003       0.00459868       0.00079807
6
Properties=species:S:1:pos:R:3:forces:R:3 charge=-1.0 dipole_moment="1.8900357841103432 2.495906647801202 8.682252827897788" energy=-12.891658156539027 pbc="F F F"
C        1.01828900       1.46018900       5.89217900       1.09532705      -2.44629737       0.58783187
H        1.78490600       0.79346300       5.40724700      -0.06371914       1.37795867       0.53718165
H        0.61922800       2.14390600       5.16334300      -0.19092859       0.39883161       0.30503519
H        0.33776200       0.64230900       6.22053800      -0.16228393       1.36080170       0.12611416
Br       1.79304800       2.35790600       7.54797900      -0.67851366      -0.69062304      -1.55828301
Br      -2.04595200      -2.71050100      -9.03781400       0.00032910       0.00043709       0.00277422
6
Properties=species:S:1:pos:R:3:forces:R:3 charge=-1.0 dipole_moment="6.205396559676883 8.573655080745874 0.8320729541184781" energy=-13.448719672497662 pbc="F F F"
C        1.64392000       3.16747700      -0.47150300       0.28952578       0.63893307      -2.91601893
H        2.11120000       3.90166900      -1.16825600      -0.16681113      -0.26089037       0.94966942
H        0.63418600       3.42987000      -0.32717000      -1.03638554       0.63093025       0.83674810
H        1.59348000       2.27916300      -1.04674000       0.03081673      -1.01644097      -0.55337806
Cl       2.55570500       2.83534100       0.91516400       0.88344294       0.00583898       1.68479569
F       -6.40548600      -8.53515100      -1.13184600      -0.00007456       0.00148713      -0.00136063
6
Properties=species:S:1:pos:R:3:forces:R:3 charge=-1.0 dipole_moment="-10.551244821875638 6.712936243277979 -3.830631275626798" energy=-12.479520076581723 pbc="F F F"
C       -1.52813600      -0.39812900      -1.52340900      -1.90650039      -1.09231321      -2.63279389
H       -2.55747200      -0.74616400      -1.31804200       0.84602876      -0.63854072       0.02830425
H       -0.76261100      -1.18997100      -1.38367700      -0.49564908       0.94974810       0.07999577
H       -1.66299100      -0.06898900      -2.61480700       0.93492723      -0.49601932       1.57233409
I       -1.52070200       1.27083000      -0.34535300       0.62208463       1.27760748       0.95314401
F       10.52767800      -6.99556500       3.64007700      -0.00084538      -0.00094154      -0.00123207
6
Properties=species:S:1:pos:R:3:forces:R:3 charge=-1.0 dipole_moment="1.9504963971261045 0.5832776426858356 -1.617433319151644" energy=-13.689054425502132 pbc="F F F"
C        5.77471100       1.96899600      -4.82553800       2.68125405       0.47331544      -4.68042318
H        4.97769200       1.50523900      -5.43176800       0.08530047      -1.62657974       1.93702093
H        6.24838600       1.79910500      -3.79226400      -0.92685705      -0.85227140      -2.06219767
H        6.48453300       2.15162200      -5.87533200      -0.13295484      -1.93105546       3.30764579
F        5.36534500       3.22959100      -4.86776800      -1.71018277       3.94147522       1.49855988
I       -1.89900000      -0.87426900       1.65778300       0.00274234      -0.00283593      -0.00085823
6
Properties=species:S:1:pos:R:3:forces:R:3 charge=-1.0 dipole_moment="-6.327465571078118 2.55891736579467 1.030589022066608" energy=-11.530136258341964 pbc="F F F"
C       -4.34183600       1.42458800      -0.01966400      -6.16430360      -3.41616795       3.37492797
H       -4.08134100       0.70440400       0.81549300      -0.35665934       0.62510310      -1.38662484
H       -3.56261100       1.47741600      -0.63954900       3.12534891       2.20593880      -2.20791495
H       -5.27783100       1.05458400      -0.58988600       2.24985273      -0.15385020       0.63711993
I       -5.80607300       2.59280000       1.22875900       1.15140487       0.73775291      -0.41693372
I        6.54140900      -2.81513800      -1.21872200      -0.00553661       0.00110609      -0.00061244
6
Properties=species:S:1:pos:R:3:forces:R:3 charge=-1.0 dipole_moment="10.354622149986906 -2.7592675619546143 0.39299345542523667" energy=-12.854436062064703 pbc="F F F"
C        3.30763300      -1.65119300      -0.95243200       1.54806082       1.55393270      -1.21487565
H        3.90388900      -1.59215500      -1.93851800      -0.72573712       0.73771537       1.79676827
H        2.41919900      -1.01275900      -0.94772100       0.13936100      -0.77319146      -0.33800085
H        3.19605800      -2.70484800      -0.86573800      -0.56620941      -0.61730340       1.00309695
Br       4.30268600      -0.82154600       0.62720800      -0.39641786      -0.89967586      -1.24510565
Cl     -10.58582000       2.58653200      -0.73445300       0.00140022      -0.00137245      -0.00146656
6
Properties=species:S:1:pos:R:3:forces:R:3 charge=-1.0 dipole_moment="-4.037712076727904 -2.9974713915178217 2.3572198844566308" energy=-12.611676087669002 pbc="F F F"
C       -3.35426300      -3.29588700       2.72029100      -2.81858748      -0.62015116      -2.67782214
H       -2.37196900      -3.36411700       2.98321500       2.13424873      -1.16317796       1.26914855
H       -4.00596200      -4.19550000       2.43778100       1.80240979       1.11386008      -0.25861700
H       -3.97808300      -2.77605000       3.34833500      -0.82203214       1.04072813       2.20661809
Br      -3.13685600      -1.88872300       1.35519600      -0.30325033      -0.37471106      -0.53832991
Br       4.00775800       2.74903700      -2.07208400       0.00720886       0.00289712      -0.00088600
6
Properties=species:S:1:pos:R:3:forces:R:3 charge=-1.0 dipole_moment="1.5870659557462272 -4.69118243050898 -5.903426876240733" energy=-12.505737953512295 pbc="F F F"
C        0.25606100      -2.85675200      -3.45574900       3.01103097       8.39108376      -5.38550302
H       -0.14380100      -3.62912600      -3.08295600      -3.02398676      -6.11294786       2.32271420
H       -0.40482600      -2.29275300      -4.40331300       1.93149923      -1.90936254       3.21789371
H        0.48263900      -2.11095900      -2.63404000      -0.05187818      -0.82711726      -1.33546605
Cl       1.91140100      -3.34607900      -4.32456900      -1.86470145       0.46163749       1.18351024
Cl      -1.99789400       4.82686400       6.13955700      -0.00104387      -0.00347767      -0.00382786
6
Properties=species:S:1:pos:R:3:forces:R:3 charge=-1.0 dipole_moment="-6.350126526766093e-05 0.0007514316390006545 5.672017682061165" energy=-13.245630846460358 pbc="F F F"
C        0.00055500       0.00116800       3.35879100       0.04398027       0.01121412      -0.04104972
H        0.00158100       1.03130500       3.02569000      -0.00181726      -0.00502496       0.00881374
H       -0.89057100      -0.51304300       3.02545300      -0.02918408      -0.01484195      -0.00578961
H        0.89280900      -0.51427400       3.02545700      -0.01389887       0.00793340       0.01296196
Br       0.00030000      -0.00060700      -6.13352700       0.00000309       0.00000463       0.01210938
Br      -0.00050400       0.00029300       5.29840300       0.00091943       0.00072454       0.01209807
6
Properties=species:S:1:pos:R:3:forces:R:3 charge=-1.0 dipole_moment="0.6376320798689004 4.7806980474479595 0.3549932399346472" energy=-13.425932788061905 pbc="F F F"
C        1.21274900       9.35977900       0.60215800      -1.88223535       6.95293350       2.00964329
H        0.65172300       9.39661700       1.58094700       1.15801878      -2.17225426      -0.77124256
H        1.88239300      10.37332100       0.81075100       0.66202826      -4.21315754      -0.77203446
H        1.18786400       8.54821700      -0.13224600       0.86218351       0.24349583       0.77441119
F        0.27581700      10.41440200       0.07632600      -0.80207472      -0.81245940      -1.24257517
Br      -0.38516600      -5.09161300      -0.18740900       0.00132515       0.00251917       0.00063455
6
Properties=species:S:1:pos:R:3:forces:R:3 charge=-1.0 dipole_moment="0.6393450264994957 2.0966260379372565 6.759056683064672" energy=-13.203051398245854 pbc="F F F"
C        0.42851900       2.04791500       7.32289200      -0.07153221      -0.17686106      -0.45640684
H        0.80145000       1.02202700       7.33470300      -0.07064724       0.28627642       0.06336484
H        0.80157600       2.57411200       6.43908100      -0.09732243      -0.13004795       0.34500967
H       -0.66197900       2.05515100       7.33412600       0.26007585       0.03778339       0.06967690
Br       1.07503700       2.95937400       8.90290800      -0.02087736      -0.01837516      -0.02538656
I       -0.77619700      -2.29277100      -7.10654800      -0.00008999       0.00059187       0.00289352
6
Properties=species:S:1:pos:R:3:forces:R:3 charge=-1.0 dipole_moment="5.901717633850612 2.0072697033386566 2.6888975764938343" energy=-11.61840611247698 pbc="F F F"
C        2.02549900      -0.78872900       1.24221700      -3.90658997       3.74219002       5.53880146
H        2.48477000      -0.94472400       0.34965100       1.15721865      -2.10123370      -1.98668282
H        0.95465700      -1.14128500       1.75863800       3.64913151      -0.30770656      -1.93578577
H        2.72217800      -0.33067400       2.11152700      -1.66696509      -1.04802441      -2.36447663
Br       0.95051700       0.81390600       0.30526700       0.77274768      -0.27429096       0.74729942
F       -5.73141100      -2.37085200      -2.48416200      -0.00584258      -0.00984578       0.00144959
6
Properties=species:S:1:pos:R:3:forces:R:3 charge=-1.0 dipole_moment="-1.552886399715909 0.45042452891051976 -3.664650080938554" energy=-12.395234203822982 pbc="F F F"
C       -3.14505600       1.05405000      -7.30107400      -2.83731591      -6.50092376      -2.30802909
H       -2.26363600       1.51482000      -7.12642800       2.42498858       1.32336181       0.87476907
H       -3.51940900       0.05083200      -6.85615700       1.25067003       2.46136506       0.52835248
H       -3.95727500       1.46696200      -7.77493300      -1.76039539       2.46684614       0.53250790
Cl      -3.02295500       0.12607600      -9.04704600       0.92493181       0.24660378       0.37570094
I        1.50945100      -0.21698500       4.13893900      -0.00283850       0.00202089      -0.00433128
6
Properties=species:S:1:pos:R:3:forces:R:3 charge=-1.0 dipole_moment="-6.354423445715872 1.9241782977359223 -2.0715435673337406" energy=-13.553780908215435 pbc="F F F"
C       -4.51899800       0.95074200      -2.08324200       0.46544581      -1.56587291      -0.86768825
H       -4.69489200      -0.15682900      -1.93338100       0.28570923       1.35368746      -0.22831295
H       -3.74559500       1.10634300      -2.86418300      -0.71134665      -0.25692933       0.41529027
H       -5.46067500       1.40375500      -2.40314300       0.27989494       0.23398120       0.47585570
Cl      -3.81762800       1.59935100      -0.59602500      -0.32191911       0.23820861       0.20823160
Cl       6.23028300      -2.07333500       1.75485800       0.00303442      -0.00260761      -0.00164036
6
Properties=species:S:1:pos:R:3:forces:R:3 charge=-1.0 dipole_moment="-3.002974834507686 -4.409866533601136 2.2126857129353286" energy=-12.818482572253084 pbc="F F F"
C       -2.45033100      -2.25224500       0.97844700       1.74051304      -2.34915286      -0.20878593
H       -2.48981300      -3.03025700       0.19598600      -0.30243580       0.94433284      -0.22990086
H       -3.12820500      -1.42819300       0.83184100      -0.47759016      -0.33324636       0.62591917
H       -2.36991300      -2.94834500       1.85793200      -0.88954314       1.70056170      -0.17209218
Br      -0.65689500      -1.48175700       0.82784100      -0.07488287       0.02768050      -0.00938453
Cl       2.68713200       4.28128000      -2.21946300       0.00313675       0.00942207      -0.00567340
6
Properties=species:S:1:pos:R:3:forces:R:3 charge=-1.0 dipole_moment="7.056117718695631 3.2746120802343164 -4.406448048820894" energy=-11.547329127867396 pbc="F F F"
C        3.89724800       0.79285100      -1.32624300       2.30368341      -1.05231352      -4.67754560
H        4.12336400      -0.32591500      -1.91072500      -0.01832940       3.78832796       0.25785904
H        3.81803400       0.25180000      -0.47360200       0.06361938       0.17509265       3.76242049
H        4.45104000       1.80244800      -1.56935900       0.49003070      -3.23488099       1.28331482
Br       2.27269700       1.47469600      -1.86249500      -2.83966641       0.32660880      -0.62846508
Cl      -6.78354900      -3.41763500       4.53520400       0.00009153      -0.00235924       0.00204660
6
Properties=species:S:1:pos:R:3:forces:R:3 charge=-1.0 dipole_moment="-3.2976207053496327 5.74014924792126 -4.325759107754119" energy=-15.083137817020177 pbc="F F F"
C       -3.20251800       5.30729700      -4.32132500       1.00630723       0.63314243      -2.74020842
H       -2.55625400       4.46724200      -4.60333900      -0.01026127       0.45192849      -0.27024199
H       -3.30645900       6.10885500      -5.09321800       0.68900788      -0.79266859       0.14345523
H       -4.17643200       4.94311600      -4.27502000      -1.82318687      -0.74039601       1.14369465
F       -2.71233600       5.88692800      -3.22248700       0.13952658       0.44951628       1.72536153
Cl       3.15678100      -5.90266800       4.05305300      -0.00020157      -0.00133029      -0.00071939
6
Properties=species:S:1:pos:R:3:forces:R:3 charge=-1.0 dipole_moment="-0.4509754023867167 -4.5296140445796285 -5.058008072871834" energy=-11.860639311093212 pbc="F F F"
C        0.97982400      -1.66682200      -0.63009100       2.55834091      -0.72843523      -4.01519441
H        1.54521700      -2.30211400      -1.40263500      -1.95889331      -0.02957540       1.48241900
H        0.71118300      -1.83838800       0.30250700      -1.68525643      -3.52104788       3.94338966
H        1.79129400      -1.15715700      -0.26501800       2.12789090       3.07120661      -0.21108501
Br      -0.48145600      -0.69828300      -1.20134500      -1.05142752       1.21536467      -1.20258166
F        0.76936900       4.41539000       5.24363900       0.00758527      -0.00685250       0.00195404
6
Properties=species:S:1:pos:R:3:forces:R:3 charge=-1.0 dipole_moment="0.2912924748586037 5.490337387067124 -1.8666958940612144" energy=-11.864052264528954 pbc="F F F"
C        0.49576700       3.38512200      -2.52093600      -2.36493429       2.82685718      -1.30716797
H       -0.39761900       2.88859800      -2.30447800      -1.23771270      -0.94094258       1.07237996
H        1.21942300       2.63142400      -2.74130000       1.47165225       0.53095444       0.56983672
H        0.11920400       3.99742800      -3.37347900       1.23842027      -0.91172662       0.01082075
I        0.25673600       5.25417400      -1.19503000       0.89203917      -1.50872396      -0.33920978
I       -0.33061500      -5.81697000       1.63927300       0.00054765       0.00375175      -0.00667767
6
Properties=species:S:1:pos:R:3:forces:R:3 charge=-1.0 dipole_moment="-1.044103678847198 1.8856859474395085 -5.426818129774304" energy=-12.870789329521678 pbc="F F F"
C       -1.51569800       1.04105900      -5.20929500       1.31345123      -3.44716774      -0.91492919
H       -1.10395800       1.50202300      -6.07388800      -0.31147272       0.47550962      -0.85168210
H       -2.57857200       1.11026800      -5.12174000      -0.40461659       0.50537659       0.36825965
H       -1.25651000      -0.10813800      -5.35843000      -0.50853133       2.39719958       0.69695310
Br      -0.46256900       1.78681100      -3.81264200      -0.08911753       0.07277405       0.69620388
Br       0.86351800      -2.03682600       5.17863700      -0.00037590      -0.00384997       0.00428449
6
Properties=species:S:1:pos:R:3:forces:R:3 charge=-1.0 dipole_moment="-6.880002251247879 -0.5986899289435073 -1.6321730211746892" energy=-13.032648569252979 pbc="F F F"
C       -1.92975200      -0.80478100      -1.45374900      -0.63938867       0.28336593      -1.55268674
H       -1.41091400      -1.77275500      -1.54353100      -0.38397423       0.59921569      -0.14673544
H       -1.70608400      -0.09313500      -2.28436000      -0.09695374      -1.11300030       0.38191169
H       -3.03850900      -0.91408400      -1.41865000       0.98418031      -0.06481443       0.29537452
Br      -1.24195100       0.10529100       0.05326300       0.12747993       0.29685959       1.02408692
F        6.80025500       0.43594300       1.34498000       0.00850470      -0.00167636      -0.00250374
6
Properties=species:S:1:pos:R:3:forces:R:3 charge=-1.0 dipole_moment="0.00031750632633830464 0.0004603841731905418 -2.9103688226590134" energy=-15.36398877237802 pbc="F F F"
C        0.00070200       0.00087000      -5.85072300       0.04432479       0.00508564      -0.06844946
H        0.00172800       1.02978000      -5.50143700      -0.00182754       0.01292905      -0.00366074
H       -0.88936100      -0.51272800      -5.50167200      -0.04578827      -0.02426350       0.02030657
H        0.89189400      -0.51395900      -5.50166900       0.00369673      -0.00210213       0.00372399
F        0.00044700      -0.00090500      -7.24055600      -0.00040521       0.00837203       0.06069552
Br      -0.00035700      -0.00000500       3.33640300       0.00000103       0.00000771      -0.01227650
6
Properties=species:S:1:pos:R:3:forces:R:3 charge=-1.0 dipole_moment="-1.793582653940872 3.688481576616297 4.204445232232358" energy=-12.798593603199393 pbc="F F F"
C       -1.73067000       2.81030400       3.42984100       7.47418562       3.08154913      -1.81989020
H       -1.39993900       3.94163300       3.26190700      -1.84244392      -2.43823079       0.27754392
H       -1.08250100       2.50789000       4.23234200      -0.49551589      -0.31194991       0.67450583
H       -2.66514100       2.46650400       3.44213300      -3.63061802      -0.95472061      -0.27344301
Cl      -0.66054300       1.99188700       2.01083700      -1.50782665       0.63264981       1.14941021
Cl       1.57416700      -3.50823100      -3.86468600       0.00316349      -0.00984218      -0.00923283
6
Properties=species:S:1:pos:R:3:forces:R:3 charge=-1.0 dipole_moment="0.41476380586783307 -3.120446883480753 -1.2196000089585903" energy=-13.646674016032076 pbc="F F F"
C        0.74124300      -5.99468500      -2.46811300       2.56701324       2.14652832      -8.40143399
H        1.75671000      -5.20247600      -3.00646500      -3.45535516      -2.54893839       2.01212646
H        0.96968900      -7.04858200      -2.77083600      -0.88554610       0.96892081      -0.87254917
H        0.73807700      -6.06628200      -1.52738100       0.56993957       0.41135083       7.63305050
F       -0.51074200      -5.44702100      -2.79952400       1.19935389      -0.97970556      -0.37526282
Br      -0.09472200       2.95167500       1.35168800       0.00504759       0.00225846       0.00423564
6
Properties=species:S:1:pos:R:3:forces:R:3 charge=-1.0 dipole_moment="-3.238402071247065 3.1279389744279156 0.5101749861097041" energy=-13.522724364689468 pbc="F F F"
C       -6.76056800       6.31502100       0.79785900      -1.35680569      -0.41398004       1.62888756
H       -6.94895500       5.28073000       0.96018300      -0.44077145      -0.73998206       0.09711057
H       -6.04206700       6.37881200       0.08772700       2.02585667       0.42458944      -2.34305369
H       -7.65620500       6.83670900       0.52176900      -0.28485871       0.29358401       0.03714884
Cl      -6.05749100       6.93293400       2.28396100       0.05890295       0.43614038       0.58324400
I        3.09788600      -3.28766500      -0.85253200      -0.00155089      -0.00004628      -0.00165733
6
Properties=species:S:1:pos:R:3:forces:R:3 charge=-1.0 dipole_moment="0.0006667632853104399 0.00046567594529618023 -5.9235303184700525" energy=-15.367813670413286 pbc="F F F"
C        0.00035800       0.00086500      -2.53789100       0.04433971       0.00509233      -0.06602131
H        0.00138500       1.02973900      -2.18860100      -0.00182857       0.01293522      -0.00365971
H       -0.88967400      -0.51271400      -2.18883700      -0.04579958      -0.02427173       0.02030760
H        0.89151800      -0.51394500      -2.18883300       0.00369519      -0.00210419       0.00371987
F        0.00010300      -0.00091000      -3.92793600      -0.00040623       0.00836894       0.05946756
F       -0.00070100      -0.00000900       6.34944900       0.00000103       0.00000926      -0.01345098
6
Properties=species:S:1:pos:R:3:forces:R:3 charge=-1.0 dipole_moment="5.550084669203045 4.780825049978494 2.008888985602982" energy=-11.659920618358695 pbc="F F F"
C        1.77323900       0.91615200       1.88010800      -0.57632207       0.15423226      -8.94392086
H        2.50006300       0.57792400       2.37954800       6.37828522      -1.55827221       3.94011716
H        1.73023800       0.17523000       1.04588000      -1.89218552       0.18687653       1.46629664
H        1.10469600       1.35629800       2.45089200      -3.95443512       1.64427613       1.83137532
Br       2.30112200       2.28103300       0.31931100       0.04049539      -0.42746907       1.70045885
Cl      -5.67727700      -5.14367800      -1.66663900       0.00401606      -0.00007096       0.00595673
6
Properties=species:S:1:pos:R:3:forces:R:3 charge=-1.0 dipole_moment="0.5991608966609091 0.15289517144821063 -9.900312931173637" energy=-14.415434438881178 pbc="F F F"
C        0.72342600       0.29682300      -4.93129500      -1.49701362      -1.74638904       0.29269749
H        1.59763000      -0.54695500      -5.03133100      -2.36707808       2.28225738       0.40382881
H        0.49060300       0.65438600      -3.85591500       1.77656300       0.21668951      -2.03635345
H        0.74931700       1.04001200      -5.82933000       0.07462936      -1.20107191       2.13564535
F       -0.61151100      -0.38548600      -5.01147200       2.00980115       0.44669681      -0.79464680
F       -0.18605600       0.06011000       9.93417700       0.00173447       0.00092611      -0.00038927
6
Properties=species:S:1:pos:R:3:forces:R:3 charge=-1.0 dipole_moment="-0.00012700253053532187 0.0009736860674374677 3.280491239043681" energy=-13.761399715032 pbc="F F F"
C        0.00070200       0.00087000      -0.67575000       0.04428674       0.01109071      -0.70388942
H        0.00172800       1.02340800      -1.02583700      -0.00180954      -0.00324216       0.00853144
H       -0.88384200      -0.50954000      -1.02607600      -0.03045421      -0.01575366      -0.00706231
H        0.88637400      -0.51077000      -1.02607300      -0.01277067       0.00710910       0.01254596
F        0.00044700      -0.00090500      -4.11652700       0.00005811       0.00006428       0.34515366
Br      -0.00035700      -0.00000500       1.26232100       0.00069163       0.00066900       0.34352049
6
Properties=species:S:1:pos:R:3:forces:R:3 charge=-1.0 dipole_moment="-1.3491849242814637 -10.625931305842988 -0.46023600357158395" energy=-13.03466230934527 pbc="F F F"
C       -1.04329200      -4.76337600      -1.29980300       2.11398946      -1.09999618       0.74909610
H       -0.26493200      -5.58926300      -1.41913300      -1.31656998       1.29101322      -0.45193878
H       -1.14598200      -4.06962800      -2.11778500       0.32121463       0.06063382      -0.12986797
H       -1.98239000      -5.19312900      -1.04507000      -0.63759815      -0.18818625       0.33923498
Br      -0.30585800      -3.82959000       0.28943000      -0.48082512      -0.06545515      -0.50555811
Cl       1.19753300      10.43929000       0.13239800      -0.00022574       0.00222092      -0.00120430
6
Properties=species:S:1:pos:R:3:forces:R:3 charge=-1.0 dipole_moment="-5.201473306427797 4.960036204108046 -4.546320169117129" energy=-12.821553921653774 pbc="F F F"
C       -2.85378800       2.79478600      -2.63276800       5.85749178      -4.09244526       1.25687822
H       -3.21225700       2.19093600      -1.80459500      -0.59947949      -0.85283550      -0.59715264
H       -2.11354500       3.34450000      -2.02200000       0.05993499       0.37768017      -1.02887432
H       -2.28404400       2.17389400      -3.50135200      -1.10503914       1.07215884       2.66439995
Cl      -3.96261900       3.68693300      -3.34850800      -4.21211573       3.49442462      -2.29428448
Cl       5.41747700      -5.12681800       4.70877600      -0.00183063       0.00196329      -0.00159768
6
Properties=species:S:1:pos:R:3:forces:R:3 charge=-1.0 dipole_moment="4.424424198663748 -3.5811379794534215 -1.7161851951238043" energy=-12.14282999389947 pbc="F F F"
C        2.84533100      -3.68813700      -0.64672900      -2.79298495       6.62158410       2.82660264
H        2.91627700      -3.25681700       0.50177800       0.57800100      -1.03134052      -2.99423189
H        3.10651800      -4.67971000      -0.62027700       0.54156178      -2.17167833      -0.81304922
H        1.71484200      -3.30498700      -0.81936000       2.77462778      -1.70798550      -0.37323473
Br       3.99972400      -2.40868000      -1.86602100      -1.10229371      -1.70355909       1.35206869
Br      -4.70857000       3.36211800       2.00368500       0.00086698      -0.00634703       0.00168819
6
Properties=species:S:1:pos:R:3:forces:R:3 charge=-1.0 dipole_moment="0.0004921348058243723 0.00022225442843681328 -2.3438211174851538" energy=-13.833503681673287 pbc="F F F"
C        0.00064300       0.00098900      -2.75251900       0.04589419       0.01143164       0.06982397
H        0.00167000       1.02722700      -2.40842400      -0.00183474       0.01444086      -0.00038155
H       -0.88710600      -0.51127200      -2.40865700      -0.04870030      -0.02646180       0.02003764
H        0.88952000      -0.51250400      -2.40865300       0.00508153      -0.00343037       0.00335683
Cl       0.00038900      -0.00078600      -4.54232800      -0.00045509       0.00398007      -0.02496181
Br      -0.00041600       0.00011400       2.88458400       0.00001646       0.00003342      -0.06934729
6
Properties=species:S:1:pos:R:3:forces:R:3 charge=-1.0 dipole_moment="6.178678402315515 -5.98268174706688 -2.3193466714965765" energy=-13.47190603240254 pbc="F F F"
C        3.36625400      -3.22893500      -0.82420600      -2.88598381       3.03179622       1.45790559
H        2.64551500      -3.81891300      -0.23459600       1.87018201      -0.50663283       0.19811277
H        3.46610100      -2.20870000      -0.56573600       0.95914805       0.84571817       4.01414694
H        4.29947400      -3.25058400      -1.21792300       3.00597669      -2.79808653      -0.96275839
F        2.58084100      -2.71142200      -1.79774200      -2.95004491      -0.57359208      -4.71066912
F       -5.98179800       5.89495600       2.57146300      -0.00039389       0.00093023       0.00233816
6
Properties=species:S:1:pos:R:3:forces:R:3 charge=-1.0 dipole_moment="0.00021272923864666413 0.0004476839201370096 -0.7497552055975881" energy=-15.550831840953023 pbc="F F F"
C        0.00079200       0.00087100      -3.23020800       0.04469246       0.00524248       0.12834279
H        0.00181900       1.02702800      -2.87689900      -0.00184091       0.01375386      -0.00334655
H       -0.88688700      -0.51135000      -2.87713500      -0.04655394      -0.02478287       0.02065419
H        0.88960000      -0.51258100      -2.87713100       0.00416056      -0.00246312       0.00374713
F        0.00053800      -0.00090400      -4.62745100      -0.00047257       0.00818536      -0.03886326
I       -0.00026700      -0.00000400       1.31433000       0.00001646       0.00008690      -0.10978920
6
Properties=species:S:1:pos:R:3:forces:R:3 charge=-1.0 dipole_moment="-12.341530172617487 0.16995002376747267 6.1170192029178265" energy=-12.816842457733907 pbc="F F F"
C       -2.38461500      -0.79961200      -0.54619100       0.40030588      -0.48898683      -0.53502655
H       -2.00244300      -1.83217600      -0.54251700      -0.19775899       0.53416266       0.16489720
H       -2.00702600      -0.29423700      -1.44364000      -0.13903447      -0.02199425       0.47576828
H       -3.46735800      -0.79675000      -0.53183100       0.00437396       0.05787914       0.07898378
I       -1.66798000       0.20285600       1.19838900      -0.06707289      -0.08018243      -0.18301885
F       12.24305300      -0.33672800      -6.41327500      -0.00057747      -0.00066437      -0.00106084
6
Properties=species:S:1:pos:R:3:forces:R:3 charge=-1.0 dipole_moment="-1.171116792926731 3.0727203908600003 -7.273503716795257" energy=-12.789052732697277 pbc="F F F"
C       -1.89116200       1.98601100      -6.32195500      -0.20088082      -0.42140333      -2.19931667
H       -2.65934500       2.76643300      -6.57311100       1.37051327      -0.54702898      -0.54045415
H       -2.48772700       1.29744500      -5.77216800       0.28523564      -0.68843761       1.19238569
H       -1.35193200       1.38705500      -7.13744000      -1.75585225       1.21402204       0.59237707
Br      -0.36644000       2.74168500      -5.49046200       0.30194421       0.44435608       0.95443316
Br       0.87632500      -3.23788500       7.13087400      -0.00110043      -0.00151952       0.00102998
6
Properties=species:S:1:pos:R:3:forces:R:3 charge=-1.0 dipole_moment="-1.7623188643407601 1.175244375169129 -10.501696372118914" energy=-12.546207799498392 pbc="F F F"
C       -1.49104700      -0.46444900      -1.55396900      -1.51136346       4.05439036      -0.87035551
H       -2.37664100       0.25738100      -1.54242200       1.00698446      -0.74823067      -0.97878254
H       -1.25374600      -0.27909600      -0.54735700       0.54142860      -2.01542416       1.51669593
H       -1.75083700      -1.28388000      -2.17740500       0.23961603      -1.21322963       0.63642521
Br       0.04515000       0.46248100      -2.36497300      -0.27414647      -0.07690376      -0.30187222
F        1.41636100      -1.34383800      10.70722800      -0.00302927      -0.00055022      -0.00176326
6
Properties=species:S:1:pos:R:3:forces:R:3 charge=-1.0 dipole_moment="-1.7636254028736422 -0.672600109942959 9.168222719219091" energy=-11.530597836244947 pbc="F F F"
C       -1.64953400       0.55197800       6.29105100      -1.66992289       3.94977834       4.31641151
H       -1.19880100       1.08091200       7.42523000      -0.12562617      -2.25421178      -3.56537730
H       -2.67813000       0.28130400       6.73787900       1.54691256      -0.18396810      -1.47802087
H       -1.75457500       1.47870000       5.68827100      -0.37474140      -0.55174850       0.65024027
I       -0.78187800      -0.67899000       4.89997100       0.62346582      -0.96002737       0.07778153
Br       1.62766400       0.85239000      -9.06560400      -0.00013884       0.00050548      -0.00088754
6
Properties=species:S:1:pos:R:3:forces:R:3 charge=-1.0 dipole_moment="0.00040217468002851927 0.0007090974621555471 -0.1480690752878684" energy=-15.610239192736321 pbc="F F F"
C        0.00035800       0.00086500      -0.03747200       0.05251479       0.01037749      -0.43011268
H        0.00138400       1.06861200       0.00804600      -0.00227028       0.00567391      -0.00379701
H       -0.92333900      -0.53215100       0.00781200      -0.04675346      -0.02492839       0.00106547
H        0.92518300      -0.53338100       0.00781600      -0.00523168       0.00244409      -0.00007765
F        0.00010300      -0.00091000      -1.81011000       0.00058570       0.00432048       0.22665973
F       -0.00070100      -0.00000900       1.83246100       0.00115185       0.00166042       0.20756569
6
Properties=species:S:1:pos:R:3:forces:R:3 charge=-1.0 dipole_moment="0.0006455961968878862 0.0001852120236973444 -2.5705365098070203" energy=-14.004557888504978 pbc="F F F"
C        0.00046900       0.00103600      -0.99196300       0.04596516       0.01148769       0.29667807
H        0.00149600       1.02452400      -0.64167400      -0.00183577       0.01501319      -0.00036613
H       -0.88489700      -0.50984900      -0.64190600      -0.04916721      -0.02677907       0.02028755
H        0.88696400      -0.51108100      -0.64190300       0.00548314      -0.00371164       0.00324010
Cl       0.00021500      -0.00073900      -2.78244400      -0.00048902       0.00388031      -0.13769853
Cl      -0.00059000       0.00016200       3.24581200       0.00004628       0.00010130      -0.18270672
6
Properties=species:S:1:pos:R:3:forces:R:3 charge=-1.0 dipole_moment="-2.4480886075230215 1.5797670144809202 4.40094513500824" energy=-12.797186975789128 pbc="F F F"
C       -3.39203200       1.52504100       4.51749600       0.05092790      -0.52531858      -3.04852022
H       -2.78270100       1.16270500       3.64777200       0.52731581       0.96305458       1.09242325
H       -4.12868800       2.18116700       4.03297900      -0.10715330      -0.43920153       0.80610981
H       -3.70070600       0.60462500       4.90724700      -1.60126929      -1.07684391       0.26124673
Br      -2.60295800       2.28950200       6.00966800       1.13608264       1.07874035       0.88654935
I        2.30316700      -1.75908100      -4.71757300      -0.00474471       0.00041652       0.00290586
6
Properties=species:S:1:pos:R:3:forces:R:3 charge=-1.0 dipole_moment="-4.8899398032651265 5.357756799555249 -6.106898159588583" energy=-12.037459124914085 pbc="F F F"
C       -1.27903300       3.33550400      -2.91368200       2.08914283       0.78748371       4.66209275
H       -0.38491100       3.51536100      -3.53438100      -1.22257301       0.19713729      -0.52554278
H       -0.76452000       2.71799600      -2.02883500      -1.83152496      -0.12993071      -2.19811031
H       -1.48346800       4.19507300      -2.18312300       0.38710121      -0.44998011      -1.81961612
I       -3.20890900       2.91606700      -3.65872300       0.57718031      -0.40706017      -0.11790720
Br       5.15369300      -5.28551500       6.26116400       0.00014912       0.00212270      -0.00097599
6
Properties=species:S:1:pos:R:3:forces:R:3 charge=-1.0 dipole_moment="2.4142651877554124 -2.7486258082501753 0.6229950382247045" energy=-13.462497603013219 pbc="F F F"
C        4.63392100      -5.44349200       1.32861800       0.80255860      -4.66785562      -3.24321754
H        4.32767700      -5.12133800       0.31320000      -4.06961541       0.82186501       1.11563671
H        4.55332500      -6.61009300       1.35115900       0.34788417       2.29416313      -0.25835218
H        5.47379000      -5.11699000       0.78741600       3.91451514      -0.22624938       1.45632076
F        4.49164300      -4.99486100       2.55671000      -0.99648150       1.77888162       0.93508149
Br      -2.35951700       2.69894600      -0.95525400       0.00096365      -0.00026482      -0.00378826
6
Properties=species:S:1:pos:R:3:forces:R:3 charge=-1.0 dipole_moment="-4.317535693901958 4.626776272211255 0.6839827117421873" energy=-12.680814281147931 pbc="F F F"
C       -4.38242500       3.10548900       1.03361800      -1.65842491       3.05222673       1.91308704
H       -5.30568400       3.78734300       1.02321400       1.35524555      -0.67413867      -0.77936828
H       -4.18010400       3.23512300       2.15411400      -0.04829355      -1.81232293      -1.64794458
H       -4.64934100       2.23266500       0.45590100       0.47879858      -0.57241811       0.79310208
Br      -2.86184300       4.00278500       0.23974400      -0.12756221       0.01048804      -0.27919149
Br       4.01697700      -4.79958700      -0.52074200      -0.00049314      -0.00423769       0.00089423
6
Properties=species:S:1:pos:R:3:forces:R:3 charge=-1.0 dipole_moment="0.708801652094842 -1.288733836455493 2.830754640506894" energy=-12.452052508335914 pbc="F F F"
C        1.14362500      -2.63395400       5.95631500      -0.36555742      -2.87698392       2.93100435
H        0.66038100      -3.57832700       6.49795000       1.50116543       2.29204711      -0.77988352
H        0.31464700      -2.12777100       5.61254300      -1.80418436       0.06937454      -3.89738902
H        1.25403400      -1.75911100       6.54521500       1.63671503       0.06408064       2.19215872
Cl       2.68972700      -3.10079000       5.22027200      -0.96165179       0.44812892      -0.44936819
I       -1.03426700       1.43363000      -2.70072100      -0.00502496       0.00251557       0.00301590
6
Properties=species:S:1:pos:R:3:forces:R:3 charge=-1.0 dipole_moment="-2.6366995364438175 3.6301503726958444 4.4282766087566525" energy=-12.208852995701218 pbc="F F F"
C       -1.16135700       0.50567900       2.63244800       2.01981149      -3.75405310       2.88934733
H       -0.17637200      -0.06509900       2.91653300      -0.76720696       2.17576330      -0.33146716
H       -1.46664800      -0.46965400       2.12602500      -1.56134571       1.62741175       1.07785589
H       -1.52639300       0.96876900       3.64371000      -0.09802229      -1.59393393      -2.23283614
Br      -1.00422000       1.80461700       1.35903900       0.40867071       1.55062832      -1.40945623
Cl       2.66383900      -3.91939300      -4.23807700      -0.00138788      -0.00548828       0.00637736
6
Properties=species:S:1:pos:R:3:forces:R:3 charge=-1.0 dipole_moment="6.193217016998545 -1.6087897385942942 3.8781085257813754" energy=-12.737874775295316 pbc="F F F"
C        1.16315300      -1.26835300      -0.33154500       1.94363535       2.43389385      -1.53552926
H        1.84383700      -2.05318600      -0.59578300       0.37501291      -0.30176063       0.15757624
H        1.21950500      -0.45967000      -1.13811100      -0.43113855      -1.36774625       1.15067879
H        0.21098300      -1.63408100      -0.16393400      -1.85976236      -0.47192191       0.29664311
I        1.84455900      -0.24211400       1.42768900      -0.03616411      -0.28537705      -0.06926758
Cl      -6.35381700       1.44641700      -4.22237800       0.00878289      -0.00683451       0.00045251
6
Properties=species:S:1:pos:R:3:forces:R:3 charge=-1.0 dipole_moment="-3.8512406112694175 -4.938720946066534 0.5626317938156872" energy=-13.464526771568906 pbc="F F F"
C       -1.48406400      -2.40652200       0.21060600      -1.16394106       4.07737500       6.15166868
H       -0.70675700      -2.57667300      -0.54669000      -1.79036879      -0.31328740      -1.11798824
H       -1.02116800      -2.93703700       1.17367500      -1.15978359       1.31261357      -1.99152729
H       -1.67968100      -1.10705900       0.51607200       1.75697376      -4.06447063      -1.22662045
F       -2.93670900      -2.67096000       0.34244100       2.35811521      -1.00249120      -1.81572450
F        4.30470800       5.01094900      -0.60985100      -0.00279993      -0.00985761       0.00038412
6
Properties=species:S:1:pos:R:3:forces:R:3 charge=-1.0 dipole_moment="0.0005027183500356491 0.00046567594529618023 -4.314974476202829" energy=-15.372144558010048 pbc="F F F"
C        0.00051800       0.00086700      -3.84353400       0.04435359       0.00509850      -0.06300283
H        0.00154500       1.02969600      -3.49422500      -0.00182908       0.01295425      -0.00364788
H       -0.88947400      -0.51268900      -3.49446000      -0.04582118      -0.02428613       0.02031943
H        0.89163900      -0.51392000      -3.49445700       0.00370496      -0.00211190       0.00372604
F        0.00026400      -0.00090800      -5.23381200      -0.00040829       0.00836483       0.05790433
Cl      -0.00054100      -0.00000700       4.74403800       0.00000103       0.00000977      -0.01495302
6
Properties=species:S:1:pos:R:3:forces:R:3 charge=-1.0 dipole_moment="4.356396880714135 -4.802774262318262 8.265980866979847" energy=-11.63811346417216 pbc="F F F"
C        1.28403600      -1.92726600       0.21028900      -8.35959957      -0.85900820      -0.65156850
H        0.70687500      -2.80269700       0.63261600       1.56908061       0.47795012      -0.37787609
H        2.15712800      -2.15324100      -0.22398500       3.58446929       0.03253268      -0.87352825
H        0.44237200      -1.63120900      -0.56689600       2.51280513      -1.13892834       0.38645946
I        0.52747400      -0.43443300       1.42366700       0.69260485       1.48977030       1.51756444
F       -4.32963300       4.57507900      -8.50642600       0.00042937      -0.00226360      -0.00125418
6
Properties=species:S:1:pos:R:3:forces:R:3 charge=-1.0 dipole_moment="0.00022860455496357939 0.000452975692242648 -2.579992377382586" energy=-15.34538566811102 pbc="F F F"
C        0.00079200       0.00087100      -8.18886900       0.04426103       0.00505993      -0.07951034
H        0.00181900       1.02994400      -7.83956700      -0.00182497       0.01287917      -0.00368233
H       -0.88941100      -0.51280800      -7.83980300      -0.04572090      -0.02421722       0.02029115
H        0.89212500      -0.51403900      -7.83979900       0.00368491      -0.00208465       0.00372656
F        0.00053800      -0.00090400      -9.57763400      -0.00039852       0.00838745       0.06637972
I       -0.00026700      -0.00000400       2.99719000      -0.00000000       0.00000411      -0.00688644
6
Properties=species:S:1:pos:R:3:forces:R:3 charge=-1.0 dipole_moment="0.0005106560081941068 4.9213480582437226e-05 -4.437799152660748" energy=-13.247958395158493 pbc="F F F"
C        0.00064800       0.00111300      -4.38520300       0.04634722       0.01292854      -0.03453969
H        0.00167500       1.03114100      -4.05395500      -0.00184914       0.01357388       0.00017689
H       -0.89038200      -0.51304200      -4.05418900      -0.04858254      -0.02644843       0.01920614
H        0.89280800      -0.51427300      -4.05418500       0.00445984      -0.00314189       0.00297220
Br       0.00039400      -0.00066200      -6.32769200      -0.00037384       0.00309407       0.02592135
I       -0.00041100       0.00023900       4.90458100       0.00000309       0.00000617      -0.01289305
6
Properties=species:S:1:pos:R:3:forces:R:3 charge=-1.0 dipole_moment="2.6888764094054123 5.013583646045 1.1010696055643956" energy=-13.144005417316798 pbc="F F F"
C        3.92213400       6.34215600       1.26656100      -4.97286870       2.12049589      -2.36189062
H        3.51554400       5.48140600       1.71079900      -0.52166967      -1.13224758      -0.10466293
H        4.85524300       6.49046100       1.50565000       4.90608789       0.97525498       1.87373785
H        3.88485900       6.49895900       0.15096900      -0.61286568      -0.69401124       1.32176721
Cl       2.86066600       7.75457100       2.01696900       1.19755618      -1.27019602      -0.72852265
Br      -2.41199300      -5.38147000      -1.29300700       0.00312286       0.00142593      -0.00011261
6
Properties=species:S:1:pos:R:3:forces:R:3 charge=-1.0 dipole_moment="-5.569912939282872 0.6517558196188493 -0.24611502886113687" energy=-12.707422811347081 pbc="F F F"
C       -5.61640800       0.00803000      -0.23258300      -1.22052487       1.79197933       1.37163170
H       -5.55917900      -1.10463800      -0.03631100      -0.05752175       1.51981365      -0.72886358
H       -6.11857100       0.41195100      -1.19304300       0.97710052      -1.30069702       1.60105177
H       -6.17674100       0.53707300       0.68822100       1.31738297      -1.38291319      -2.16482017
Br      -3.76746700       0.80696500      -0.19321600      -1.02290010      -0.62597831      -0.07959108
Br       5.24040900      -0.80389500       0.24854800       0.00734204      -0.00240964       0.00056616
6
Properties=species:S:1:pos:R:3:forces:R:3 charge=-1.0 dipole_moment="0.0003227980984439431 0.00046567594529618023 -2.036236863844921" energy=-15.413704155075608 pbc="F F F"
C        0.00070200       0.00087000      -4.20102500       0.04447443       0.00514735      -0.02725421
H        0.00172800       1.02920500      -3.85131600      -0.00183371       0.01306892      -0.00359954
H       -0.88886300      -0.51244000      -3.85155200      -0.04595899      -0.02438332       0.02036982
H        0.89139500      -0.51367100      -3.85154900       0.00374096      -0.00215561       0.00371833
F        0.00044700      -0.00090500      -5.59334700      -0.00042320       0.00832883       0.03972612
Br      -0.00035700      -0.00000500       2.48859100       0.00000309       0.00002263      -0.03258462
6
Properties=species:S:1:pos:R:3:forces:R:3 charge=-1.0 dipole_moment="-12.52043599149654 1.5409973753261708 -4.857231359880176" energy=-11.892474831225384 pbc="F F F"
C       -2.10430000       0.90049400       0.82391000       5.12899998      -0.48067754       3.19759074
H       -1.55666500       0.14533000       1.56570600      -0.17458923       1.36808255      -1.78862713
H       -2.90600300       0.87519200       1.47019900      -3.23856230       0.46656424      -0.22537983
H       -1.49867300       1.85600400       0.97939200      -1.13854987      -1.24188303      -0.55335389
I       -1.77859400       0.09285700      -1.04417500      -0.57644857      -0.11243229      -0.63106138
F       12.53918300      -1.46677100       5.15361000      -0.00096622       0.00041240       0.00088600
6
Properties=species:S:1:pos:R:3:forces:R:3 charge=-1.0 dipole_moment="-3.249292538240468 0.7165324019639691 4.385375153941821" energy=-12.02087076567182 pbc="F F F"
C       -4.37246000       0.17833800       5.90664500      -0.06310465       3.32555764       7.28803157
H       -3.74485800       0.27603200       6.97709900      -1.18779370      -0.03526680      -2.57164020
H       -4.19311200      -0.81226900       5.77323200      -0.75813713      -2.82275678      -1.26274393
H       -5.30020800       0.71884900       6.29728500       0.53089479      -2.12323309      -1.02304922
Br      -3.63843800       1.34588400       4.75088900       1.47637743       1.65854730      -2.42869971
I        3.14751400      -0.91242600      -4.16544500       0.00239575      -0.00215561      -0.00254951
6
Properties=species:S:1:pos:R:3:forces:R:3 charge=-1.0 dipole_moment="-1.5298142733353253 0.8257757453127684 4.5048115087205005" energy=-12.967903185309568 pbc="F F F"
C       -1.37520300       0.57059600       4.18788500       4.09143328      -3.82078146       4.49206620
H       -1.93291500      -0.28308800       4.66289000      -1.64006878       0.85390353      -2.37778158
H       -0.88110900       0.41695000       5.27602500       0.04210490       2.10943861      -1.58578919
H       -0.34136600      -0.00652900       3.65875700      -3.51767459       2.88140159       0.06881250
F       -1.95755300       1.83027900       4.06411900       1.02198170      -2.01909106      -0.60221823
Cl       1.70732900      -1.17784800      -4.42953200       0.00255671      -0.00472929       0.00494526
6
Properties=species:S:1:pos:R:3:forces:R:3 charge=-1.0 dipole_moment="-0.0002846973392833466 0.0010244870796515964 6.19426372952104" energy=-12.975281551026145 pbc="F F F"
C        0.00079200       0.00087100      -0.83227900       0.04480148       0.01170058      -0.11394153
H        0.00181900       1.03131600      -1.16263500      -0.00183114      -0.00593668       0.00828872
H       -0.89060100      -0.51349400      -1.16287300      -0.02875059      -0.01464243      -0.00574333
H        0.89331500      -0.51472500      -1.16286900      -0.01483989       0.00841162       0.01252744
F        0.00053800      -0.00090400      -6.71811400       0.00001234       0.00004834       0.05064354
I       -0.00026700      -0.00000400       1.30085000       0.00060987       0.00046023       0.04914047
6
Properties=species:S:1:pos:R:3:forces:R:3 charge=-1.0 dipole_moment="4.776387369890706 -8.600569033675152 -1.2524031750642324" energy=-11.755724533885962 pbc="F F F"
C        2.28128300      -4.34676600      -2.11519200       1.21404415       1.47788204      -0.06954783
H        1.55741900      -5.02082800      -2.32438500      -2.23959197      -2.20099971      -1.09401219
H        3.06926000      -4.43575600      -2.98930200      -1.52513583       1.35301743       2.22155157
H        1.69191200      -3.53855600      -1.58720100       1.22677471       0.44873261      -2.53048609
I        2.87774300      -5.01058000      -0.24682800       1.32390740      -1.07768414       1.47382946
Br      -4.92933300       8.70390000       0.93354100       0.00000463      -0.00084384      -0.00136114
6
Properties=species:S:1:pos:R:3:forces:R:3 charge=-1.0 dipole_moment="3.5736554136960486 5.561824465619404 -4.336184957156648" energy=-11.498534763161329 pbc="F F F"
C        4.16976900       3.98350400      -4.63327300      -6.16168056      -3.36606743       3.38777783
H        4.43026500       3.26332000      -3.79811600      -0.36525043       0.61103762      -1.38500555
H        4.94899400       4.03633200      -5.25315800       3.11103300       2.18670541      -2.21449389
H        3.23377500       3.61350000      -5.20349500       2.24954780      -0.16229216       0.63816739
I        2.70553300       5.15171600      -3.38485000       1.16594961       0.73150462      -0.42600663
I       -3.41556400      -5.80858700       4.17832900       0.00045868      -0.00111432      -0.00042166
6
Properties=species:S:1:pos:R:3:forces:R:3 charge=-1.0 dipole_moment="-7.222229090977674 -0.9457587401499611 -1.5421970200625192" energy=-11.828595611529265 pbc="F F F"
C       -3.18604900       0.78202100      -0.98220900       1.51767192       4.22665737      -3.43602767
H       -3.01289500       1.88738600      -0.85624100       0.89000285      -1.05056157       1.17253266
H       -3.87151000       0.52796600      -0.30105900      -3.50504893      -0.69943936       1.55941378
H       -3.47868300       1.03811900      -2.06754900       0.26142773      -2.37384008       1.22697320
I       -1.71092100      -0.52675300      -0.30476300       0.83211240      -0.10449530      -0.52428191
Cl       7.06812900       1.16307800       1.48650100       0.00414873       0.00163059       0.00127218
6
Properties=species:S:1:pos:R:3:forces:R:3 charge=-1.0 dipole_moment="-0.4904943564716243 -5.799982785942502 3.8044412371215723" energy=-12.427060136799392 pbc="F F F"
C       -0.60943200      -5.96443500       2.10221200      -2.25884234      -1.40625212       0.31085822
H       -1.13739000      -5.61798200       1.17210300       1.59262729       0.26656634       0.75082234
H       -1.42255200      -6.59075500       2.51082400       0.17028315       0.35696993       0.22918558
H        0.17440900      -6.72449200       2.05708100       0.40635260       0.94411995      -0.61500227
I       -0.28729600      -4.54402900       3.68098600       0.09010020      -0.16111356      -0.67291277
I        0.40129800       5.57647900      -4.02727400      -0.00071477       0.00028025      -0.00244461
6
Properties=species:S:1:pos:R:3:forces:R:3 charge=-1.0 dipole_moment="-4.702617950029264 5.962377217497545 -2.2957242008170065" energy=-13.312665692116928 pbc="F F F"
C       -4.45068300       5.38514600      -2.25515900      -1.53388941      -2.80867485       5.59778000
H       -4.78363000       5.33090200      -3.19899300      -5.37671139      -0.90130594      -2.87419376
H       -4.33666900       4.45306800      -1.60905200      -0.32241636       1.37607868      -1.39764818
H       -3.71758700       5.62305300      -2.80857600       8.51443862       1.37565857      -1.94371865
F       -4.70642100       6.48058000      -1.51424800      -1.28054265       0.95907040       0.62034142
Cl       4.81763400      -6.23783000       2.04563600      -0.00105518       0.00075488      -0.00141616
6
Properties=species:S:1:pos:R:3:forces:R:3 charge=-1.0 dipole_moment="1.0193672901393913 1.624708976619686 -1.2956311322179817" energy=-15.007791475689723 pbc="F F F"
C        3.24648700       5.04514200      -3.54645400       1.53028781      -3.58214193      -1.62065798
H        3.77642900       5.12044000      -4.52770200      -0.62190054       0.16417883       0.50385295
H        2.18706100       5.30375100      -3.70393300       0.52496583       0.12940569       0.81261984
H        3.44259000       3.91918100      -3.24964900      -1.17480500       2.09867185      -0.53647306
F        3.98032100       5.75695600      -2.66262600      -0.25817631       1.18889208       0.84819620
I       -1.22090300      -1.81937400       1.07025700       0.00032396       0.00179977      -0.00650026
6
Properties=species:S:1:pos:R:3:forces:R:3 charge=-1.0 dipole_moment="3.6192435012089135 0.9316175375520633 1.0622608072960646" energy=-14.61606605044352 pbc="F F F"
C       10.52228100       2.94434200       3.05468300       1.94544798      -4.48386592       0.36494910
H       10.26627500       2.53745800       4.11370000       0.65798906       1.67764083      -1.38977547
H       11.54076500       3.36918200       2.83098200      -0.83564510      -0.63325607       1.02161918
H       10.33795200       2.03650900       2.43735800       1.45599937      -0.35730675       0.61622405
F        9.63572200       3.69360000       2.48483900      -3.22397129       3.79943873      -0.61378459
I       -3.43396600      -1.11040800      -0.94478700      -0.00097651      -0.00147890       0.00007353
6
Properties=species:S:1:pos:R:3:forces:R:3 charge=-1.0 dipole_moment="0.5884556416912027 -4.27893750816343 -4.153279087742941" energy=-13.184523221340365 pbc="F F F"
C        0.44253100      -5.51252800      -5.22180900      -0.22764703       1.54056656      -0.84717496
H        0.65612700      -4.37174000      -5.16407100      -1.09941459      -1.83444213      -1.18061312
H        0.92716400      -5.74263200      -4.33356500       0.94500698      -1.36823733       1.53493688
H       -0.63098800      -5.87812800      -5.13563200       1.52915909       0.81776308      -0.73999903
Cl       1.41259000      -6.32018200      -6.60081500      -1.14654086       0.84729991       1.23461761
Br      -0.78918600       4.47173600       4.51937100      -0.00021803      -0.00321336      -0.00240604
6
Properties=species:S:1:pos:R:3:forces:R:3 charge=-1.0 dipole_moment="3.1742102297196175 -1.9659600135732012 1.7791736876744293" energy=-12.317820919750725 pbc="F F F"
C        2.90516000      -2.79932700       2.22209200      -1.68115038      -1.99326536      -1.56734049
H        2.91447900      -3.96721300       1.99309500       0.46891834       2.64196656      -0.36183549
H        2.54705500      -2.13127300       1.31272000      -0.69374231      -2.06590828       2.44076590
H        2.32713000      -2.90796500       3.21240600       1.08077769       1.62816714      -1.43098511
Br       4.66163300      -2.03183300       2.16055800       0.82066071      -0.20337942       0.91501815
I       -3.55427900       1.82861400      -1.80132700       0.00385511      -0.00815143       0.00445932
6
Properties=species:S:1:pos:R:3:forces:R:3 charge=-1.0 dipole_moment="0.0002804639215988358 0.00043921708476798814 -0.8833184751894806" energy=-15.673075371194617 pbc="F F F"
C        0.00070200       0.00087000      -2.29107900       0.04486678       0.00529133       0.19781401
H        0.00172800       1.02530200      -1.93534700      -0.00184759       0.01429122      -0.00319125
H       -0.88548300      -0.51048800      -1.93558200      -0.04703885      -0.02510734       0.02077760
H        0.88801600      -0.51171900      -1.93557800       0.00448812      -0.00270583       0.00365302
F        0.00044700      -0.00090500      -3.69320100      -0.00049057       0.00810309      -0.07398041
Br      -0.00035700      -0.00000500       1.50833700       0.00002365       0.00015992      -0.14345471
6
Properties=species:S:1:pos:R:3:forces:R:3 charge=-1.0 dipole_moment="0.057488753801234575 -8.263473625356195 0.08586588171772055" energy=-12.130274481469122 pbc="F F F"
C        0.07885800      -4.47869400      -1.72544500       1.16094212      -2.88415370       3.23136167
H        0.94232200      -5.15737200      -1.88621700      -1.17663408       0.34340736      -0.47345943
H        0.36922800      -3.50288600      -1.63091100       0.18737790       2.50087984      -0.58664145
H       -0.93781500      -4.78031500      -1.82053400      -0.26910196      -0.02008443      -0.94050395
I        0.00797800      -4.75232900       0.65857200       0.09718565       0.06067650      -1.22697320
Br      -0.03627700       8.34817700      -0.54897000       0.00022523      -0.00094668      -0.00322931
6
Properties=species:S:1:pos:R:3:forces:R:3 charge=-1.0 dipole_moment="0.0006667632853104399 0.00016933670738042918 -4.074458142229457" energy=-13.790200197521667 pbc="F F F"
C        0.00046900       0.00103600      -1.86120400       0.04585151       0.01140799       0.00990389
H        0.00149600       1.02792400      -1.51845200      -0.00183423       0.01430716      -0.00038361
H       -0.88784200      -0.51155000      -1.51868500      -0.04857483      -0.02637644       0.01998107
H        0.88990900      -0.51278100      -1.51868100       0.00499514      -0.00336660       0.00338306
Cl       0.00021500      -0.00073900      -3.65066200      -0.00044532       0.00400475       0.00483059
Cl      -0.00059000       0.00016200       4.57554700       0.00000977       0.00001954      -0.03931577
6
Properties=species:S:1:pos:R:3:forces:R:3 charge=-1.0 dipole_moment="2.3548227116927762 6.664420747436276 -1.6271193788138043" energy=-13.122311986738698 pbc="F F F"
C        0.41916800       1.97761900      -1.75196100      -0.39581622      -0.18272934       0.47838515
H        1.15509000       1.31286800      -2.18921600       0.09665960       0.20962411       0.04700234
H       -0.01478400       2.67287900      -2.46677700       0.36550445       0.14791969       0.19944049
H       -0.36632000       1.41378200      -1.28350100      -0.34764506      -0.45506832      -0.35089493
Br       1.13626500       2.85631400      -0.16692900       0.28085088       0.27600897      -0.36827559
Cl      -2.53283900      -6.89624900       1.31139800      -0.00003291       0.00415696      -0.00648535
6
Properties=species:S:1:pos:R:3:forces:R:3 charge=-1.0 dipole_moment="-3.0991321546164516 0.8824543288046299 -0.595277265112581" energy=-13.967714947066916 pbc="F F F"
C       -9.29600400       2.99882600      -1.64924400       2.72682531       1.64044930       2.34960434
H       -9.97845800       2.55591400      -2.22276500      -3.99659556      -3.43274385      -0.26789869
H       -8.85977700       2.73561700      -0.60015700      -0.99935496      -0.29803767      -2.52212846
H       -8.71654600       3.11639600      -2.49554300       3.81345895      -0.87291016      -0.92939164
F       -9.69772300       4.28565700      -1.63384700      -1.54200072       2.96545764       1.37056984
I        3.21906300      -1.22588300       0.56450100      -0.00262458      -0.00059547      -0.00052810
6
Properties=species:S:1:pos:R:3:forces:R:3 charge=-1.0 dipole_moment="0.7716446209125615 2.2511727714596366 3.0356097222603684" energy=-14.504946391522028 pbc="F F F"
C        1.80053400       6.41190000       9.03784200      -4.78120991       4.24906917      -2.72379450
H        1.42583000       7.48316900       9.18269200       1.83867057      -0.93440581       0.40411471
H        1.85603200       6.38044000       7.97121900       1.52040911      -0.25829716      -0.65731903
H        2.63948400       6.14572900       9.57822300       0.97550901      -1.35469019       1.51670107
F        0.50653600       5.85416100       9.13317000       0.44520403      -1.70129755       1.46164449
I       -0.40157300      -2.09751300      -3.07844700       0.00150461       0.00006171      -0.00122642
6
Properties=species:S:1:pos:R:3:forces:R:3 charge=-1.0 dipole_moment="-0.00010054367000712982 0.0009048930300641683 3.703420249270514" energy=-13.480394969216581 pbc="F F F"
C        0.00064300       0.00098900       0.16972700       0.04422092       0.01120590      -0.33834126
H        0.00167000       1.02786300      -0.17030600      -0.00182188      -0.00279685       0.00834477
H       -0.88765700      -0.51159100      -0.17054100      -0.03110264      -0.01601283      -0.00662728
H        0.89007200      -0.51282200      -0.17053800      -0.01214486       0.00684788       0.01247499
Cl       0.00038900      -0.00078600      -4.37260300       0.00003137       0.00005245       0.16238472
Br      -0.00041600       0.00011400       2.10935100       0.00081967       0.00070037       0.16108220
6
Properties=species:S:1:pos:R:3:forces:R:3 charge=-1.0 dipole_moment="2.241435381608051 -1.6564458506460418 -4.110011971475609" energy=-11.578053924882209 pbc="F F F"
C        2.43718700      -1.57506600      -5.05052000       2.06100622       2.05260282      -3.68132532
H        3.64606500      -1.25912800      -5.26507300      -3.68979865      -0.94300255       0.94534380
H        1.80148500      -0.95443600      -5.77098000       0.87336987       0.96675594       1.82852654
H        2.17557200      -2.35883200      -5.77489800       0.60998039      -1.70753864       1.68129128
I        1.81878100      -1.41454900      -3.02784600       0.14465130      -0.36788067      -0.77277082
I       -2.23852100       1.67913000       3.91679100       0.00074459      -0.00087572      -0.00033424
6
Properties=species:S:1:pos:R:3:forces:R:3 charge=-1.0 dipole_moment="0.03677305353929188 -1.951138818259729 1.5828870433144047" energy=-14.600719070335721 pbc="F F F"
C       -0.04359600      -5.68262700       4.28552400       1.38592550       6.03902196       0.40674649
H        0.67172500      -4.70251500       4.25535400      -1.20885824      -2.53529046       1.33589594
H        0.51125800      -6.52514200       4.49494200       1.21373613      -2.19230064      -0.67075767
H       -0.74792500      -5.59264600       5.13261200      -0.33992352       0.24951581      -0.98187352
F       -0.53666000      -5.47596600       3.01901600      -1.05421151      -1.57043816      -0.08994439
I        0.08785800       1.89056100      -1.25975800       0.00336455       0.00921432      -0.00019643
6
Properties=species:S:1:pos:R:3:forces:R:3 charge=-1.0 dipole_moment="0.0005789198683568422 -0.00011853569516630042 -5.70870871313282" energy=-12.886598942271874 pbc="F F F"
C        0.00058700       0.00121700      -3.44076200       0.04642898       0.01426345      -0.03323665
H        0.00161300       1.03246100      -3.11360100      -0.00182291       0.01250739       0.00075436
H       -0.89149800      -0.51354600      -3.11383400      -0.04804209      -0.02622628       0.01867392
H        0.89379900      -0.51477700      -3.11383000       0.00374455      -0.00278708       0.00252739
I        0.00033200      -0.00055800      -5.57626800      -0.00031008       0.00225023       0.02162041
I       -0.00047200       0.00034200       6.14203800       0.00000257       0.00000411      -0.01113699
6
Properties=species:S:1:pos:R:3:forces:R:3 charge=-1.0 dipole_moment="6.321281077018258 8.344664226418585 -2.0288442582133444" energy=-13.232332620290723 pbc="F F F"
C        1.70751500       2.94344800      -1.55458800      -1.32914525      -1.72017819      -1.70723782
H        0.67844000       3.46370400      -1.53264300       1.43186443      -1.50994267       0.65270647
H        1.74702200       1.83130200      -1.94374400      -0.91215805       2.32883240       0.80911800
H        2.17720600       3.49236400      -2.36484500       0.95606530       0.29194673       0.52290380
Cl       2.56570900       2.85675400      -0.00265900      -0.14516090       0.60853440      -0.27426782
F       -6.49608900      -8.33476400       1.69044000      -0.00060421       0.00022986      -0.00169487
6
Properties=species:S:1:pos:R:3:forces:R:3 charge=-1.0 dipole_moment="0.00046567594529618023 0.0002275462005424517 -1.5556169541224183" energy=-14.007222964049447 pbc="F F F"
C        0.00064300       0.00098800      -1.89302000       0.04603663       0.01152471       0.26477994
H        0.00167000       1.02458100      -1.54347100      -0.00183885       0.01492680      -0.00038875
H       -0.88481400      -0.50994900      -1.54370300      -0.04913893      -0.02676416       0.02019705
H        0.88722900      -0.51118000      -1.54369900       0.00538543      -0.00366022       0.00318251
Cl       0.00038900      -0.00078700      -3.68583900      -0.00048902       0.00387465      -0.12241332
Br      -0.00041600       0.00011400       2.24709300       0.00004628       0.00009616      -0.16685689
6
Properties=species:S:1:pos:R:3:forces:R:3 charge=-1.0 dipole_moment="-0.00030586442770590014 0.0010244870796515964 7.467800125666351" energy=-12.925578144650297 pbc="F F F"
C        0.00079200       0.00087100      -0.65487000       0.04471766       0.01175560      -0.06268916
H        0.00181900       1.03185500      -0.98414500      -0.00182651      -0.00408548       0.00779918
H       -0.89106600      -0.51376200      -0.98438200      -0.03038838      -0.01557317      -0.00618659
H        0.89377900      -0.51499300      -0.98437800      -0.01313268       0.00744283       0.01201785
F        0.00053800      -0.00090400      -7.94072100       0.00000668       0.00001851       0.02523692
I       -0.00026700      -0.00000400       1.47827600       0.00062375       0.00046331       0.02459517
6
Properties=species:S:1:pos:R:3:forces:R:3 charge=-1.0 dipole_moment="0.0006085537921484173 2.1167088422553648e-05 -3.6412948447503193" energy=-13.335497013452077 pbc="F F F"
C        0.00055500       0.00116800      -1.80573300       0.04651589       0.01298819       0.05121021
H        0.00158100       1.03028000      -1.47304300      -0.00185531       0.01362531       0.00011261
H       -0.88968300      -0.51253000      -1.47327700      -0.04870852      -0.02654304       0.01921797
H        0.89192100      -0.51376100      -1.47327300       0.00443310      -0.00315474       0.00287655
Br       0.00030000      -0.00060700      -3.74966500      -0.00039646       0.00306990      -0.01692660
Br      -0.00050400       0.00029300       4.18549300       0.00001440       0.00002571      -0.05570141
6
Properties=species:S:1:pos:R:3:forces:R:3 charge=-1.0 dipole_moment="5.6653870916128 -0.49595017351253756 -1.4675301156519611" energy=-13.380083367958443 pbc="F F F"
C        4.15158300      -0.77229000      -1.56501200      -3.72008985      -1.01908407      -0.73608067
H        3.83907800      -1.82990900      -1.45565800       0.42445163       0.64063051      -0.18820785
H        5.13199900      -0.62723300      -1.34290600       2.89335825       0.26464932      -0.23804766
H        3.71468600      -0.35703600      -2.48534400       1.07887302      -0.44816697       0.00832523
Cl       3.30111800       0.14459800      -0.34102700      -0.66915999       0.56540671       1.15663861
Cl      -5.51260400       0.29351500       1.20420200      -0.00817611      -0.00228674      -0.00163676
6
Properties=species:S:1:pos:R:3:forces:R:3 charge=-1.0 dipole_moment="1.1274332141946861 -3.209687328270239 -1.021772400561404" energy=-15.141558066219014 pbc="F F F"
C        2.22946300      -6.23652200      -1.93009300      -2.20429072       0.11260199      -1.55096822
H        2.56665400      -7.28330700      -2.02515900       0.17289744       0.59875341       0.11225489
H        2.54820800      -5.59790300      -2.79957400      -0.22600204      -0.86039403       0.76321300
H        1.06355000      -6.26629700      -1.92560800       2.02259394       0.16373506       0.09174160
F        2.68160300      -5.65291200      -0.79125900       0.23984743      -0.01823786       0.58773931
Br      -1.24827500       3.06979600       0.72720700      -0.00408703       0.00363194      -0.00311258
6
Properties=species:S:1:pos:R:3:forces:R:3 charge=-1.0 dipole_moment="-3.451729280141666 0.35823868376703527 -4.397232427698925" energy=-12.219031434932987 pbc="F F F"
C       -1.55296000       0.20672200      -4.18493800       0.96166670      -1.76326731       1.04363091
H       -1.04184300       0.95263800      -3.64253600       0.42091636       1.01756506       0.48970726
H       -1.01636400       0.05611700      -5.13557000      -1.39677195       0.04113045      -0.04448677
H       -1.52490300      -0.68315800      -3.54510300       1.34410033      -0.01092308      -0.68861090
I       -3.57533300       0.38207200      -3.70420700      -1.33026574       0.71548716      -0.79371555
I        3.81874500      -0.41161800       4.41048700       0.00002057      -0.00001440      -0.00652700
6
Properties=species:S:1:pos:R:3:forces:R:3 charge=-1.0 dipole_moment="-3.4213846713563036 4.114088223528583 -5.005545444216536" energy=-12.312600092201452 pbc="F F F"
C       -1.72263300       0.04124900      -0.39020300      -1.72446216       5.48644557      -0.62823214
H       -2.30188800       0.86749500       0.15915400       0.36606290      -1.17855418      -1.01432084
H       -1.28925100      -0.41318900       0.41715100       0.90475790      -2.81939943       0.95417348
H       -2.21861800      -0.11926200      -1.33166500      -0.67271017      -2.04874360       0.76761628
Br      -0.34308600       1.09796700      -1.25954100       1.13802897       0.55812535      -0.07692587
F        3.12817600      -4.33459900       5.24227800      -0.01240197       0.00181160      -0.00171853
6
Properties=species:S:1:pos:R:3:forces:R:3 charge=-1.0 dipole_moment="2.939589988226349 -6.377421487286976 4.317604486939331" energy=-11.495791461659492 pbc="F F F"
C        1.52096500      -2.53171400       1.58114900      -6.91993802       0.05126574       1.26875312
H        1.88237000      -3.35218100       1.10741500       1.45353369      -1.45166141      -3.18658076
H        0.53447300      -3.14118600       2.03485600       2.70760889       2.33574404      -0.29701540
H        2.22785600      -2.15635600       2.23641000       0.72418571       1.29796599       1.37873001
Br       0.31205300      -0.87884900       0.64111800       2.03710987      -2.23873785       0.83969870
F       -2.74359300       6.06663700      -4.14496600      -0.00320205       0.00697335      -0.00446652
6
Properties=species:S:1:pos:R:3:forces:R:3 charge=-1.0 dipole_moment="0.0003952953762911894 0.00023865892196429236 -2.0878882638364265" energy=-13.77937140784135 pbc="F F F"
C        0.00073800       0.00096300      -4.14740200       0.04582889       0.01138896      -0.00081710
H        0.00176400       1.02796000      -3.80478600      -0.00183268       0.01427939      -0.00037795
H       -0.88766700      -0.51167800      -3.80502000      -0.04853626      -0.02635124       0.01998004
H        0.89027200      -0.51290900      -3.80501600       0.00498177      -0.00335426       0.00340208
Cl       0.00048300      -0.00081200      -5.93659200      -0.00044686       0.00401658       0.01016666
I       -0.00032100       0.00008800       2.58908100       0.00000771       0.00001748      -0.03403935
6
Properties=species:S:1:pos:R:3:forces:R:3 charge=-1.0 dipole_moment="0.00011112721421840664 0.0010371873327051286 2.509781674262186" energy=-15.67531222515997 pbc="F F F"
C        0.00035800       0.00086500       0.90755100       0.03929623       0.00766754      -0.50597463
H        0.00138400       1.02519700       0.54786200      -0.00158586      -0.00265749       0.01122544
H       -0.88574000      -0.51044300       0.54762700      -0.02890486      -0.01465735      -0.00701654
H        0.88758500      -0.51167400       0.54763100      -0.01173452       0.00697026       0.01484247
F        0.00010300      -0.00091000      -3.08826900       0.00003754       0.00015118       0.24242059
F       -0.00070100      -0.00000900       2.30066600       0.00289198       0.00258447       0.24423322
6
Properties=species:S:1:pos:R:3:forces:R:3 charge=-1.0 dipole_moment="-0.4840383945027455 -4.027154991377155 2.8940754563457527" energy=-13.336025887998868 pbc="F F F"
C       -0.92516300      -5.54235500       3.39007000      -0.09703961      -0.76293070      -3.01450504
H       -2.05110500      -5.63276000       3.40708700       1.39258825      -0.55547917       0.57600428
H       -0.39334500      -6.39944200       2.73910400      -1.47267041       1.77519620       1.84024409
H       -0.80992900      -4.62598900       2.77430500       0.42457401      -0.37781130       0.67647426
Cl      -0.14966800      -5.36095300       4.96213400      -0.24487960      -0.07480728      -0.07709556
Br       0.32427800       4.02995800      -3.24620600      -0.00188616      -0.00409063       0.00006016
6
Properties=species:S:1:pos:R:3:forces:R:3 charge=-1.0 dipole_moment="-7.408480947893776e-05 0.0007514316390006545 6.99965451032847" energy=-13.224982389444099 pbc="F F F"
C        0.00055500       0.00116800       4.39993300       0.04391702       0.01119561      -0.02972555
H        0.00158100       1.03142400       4.06676800      -0.00181314      -0.00548828       0.00896081
H       -0.89067400      -0.51310200       4.06653100      -0.02874545      -0.01458638      -0.00563226
H        0.89291200      -0.51433300       4.06653500      -0.01428145       0.00816171       0.01310903
Br       0.00030000      -0.00060700      -7.44168000       0.00000154       0.00000257       0.00631000
Br      -0.00050400       0.00029300       6.33883900       0.00092303       0.00072557       0.00612077
6
Properties=species:S:1:pos:R:3:forces:R:3 charge=-1.0 dipole_moment="-4.516991051398838 0.5392342234506069 3.2176144028844855" energy=-12.129943253354757 pbc="F F F"
C       -2.59053100       0.94376300       3.38077400       1.62693661      -5.38522791       1.86148963
H       -1.46076900       0.90867300       3.78533200      -2.90564761       0.27330572      -0.98885663
H       -3.25070900       0.06597900       3.93408600       2.00111957       2.38657167      -1.14914487
H       -3.10293700       1.82448400       3.53598900      -0.73161363       2.05357367      -0.25482000
I       -2.57336900       0.13475300       1.35353200       0.00330850       0.67190798       0.53217314
Br       4.56417700      -0.44581800      -2.95077900       0.00597267      -0.00022626      -0.00104644
6
Properties=species:S:1:pos:R:3:forces:R:3 charge=-1.0 dipole_moment="-3.909931655693053 -5.0390635287336485 2.116407211245343" energy=-15.181247086042754 pbc="F F F"
C       -3.79334100      -4.88660500       1.77912100       2.01104917       0.33337080      -2.00393287
H       -3.44410300      -5.91953000       1.63806100       0.19193029       0.31992136       0.46645317
H       -3.37200100      -4.26349400       0.94982100      -0.69914214      -0.73111072       0.32370397
H       -4.83915900      -4.90340000       1.75963100      -1.61315395       0.25195167       0.09610322
F       -3.32174100      -4.29070500       2.90402900       0.11038621      -0.17416088       1.12103140
Cl       3.78299800       4.88367100      -2.42108800      -0.00009102      -0.00007713      -0.00255671
6
Properties=species:S:1:pos:R:3:forces:R:3 charge=-1.0 dipole_moment="0.3235177794503099 4.792281736587202 2.606737522781693" energy=-13.458118167183766 pbc="F F F"
C        0.32719800       4.76466700       2.29063900       2.06331610       7.09625709      -7.72658004
H        0.15457800       6.05187600       2.46514100       0.47438708      -4.09314100       0.42734309
H       -0.15723100       4.68489600       1.23355300      -1.45608936      -1.02194211       2.47883365
H        1.30540100       4.74490200       1.59876400      -0.49519811      -0.20427159       2.95906742
F        0.20634600       3.94052000       3.25454400      -0.58699678      -1.77918090       1.86448136
Cl      -0.30135600      -4.67849200      -2.84307000       0.00050599       0.00214790      -0.00251814
6
Properties=species:S:1:pos:R:3:forces:R:3 charge=-1.0 dipole_moment="-2.7809638275877315 -1.8698952994762834 6.190399677529504" energy=-12.546683748351192 pbc="F F F"
C       -2.35313400      -1.29762900       2.45775900      -1.20075103      -0.16389241      -0.30648220
H       -2.29140000      -2.40759000       2.17065000       0.01706030       2.00436944      -0.14524728
H       -2.74296300      -0.54668000       1.66608000      -0.43850888      -2.16724884       1.50529257
H       -2.94300500      -1.32175700       3.47262500       1.57714874       0.80084162      -1.87036353
Br      -0.55739700      -0.49393300       2.39557500       0.04678020      -0.47468841       0.82225222
Cl       2.44735700       1.72643900      -6.22947200      -0.00193913       0.00033321      -0.00591045
6
Properties=species:S:1:pos:R:3:forces:R:3 charge=-1.0 dipole_moment="-4.2334176845107295e-05 0.0007514316390006545 3.9432804035027864" energy=-13.311636328186443 pbc="F F F"
C        0.00055500       0.00116800       2.02970500       0.04413813       0.01125063      -0.09446234
H        0.00158100       1.03063500       1.69587000      -0.00182394      -0.00285444       0.00812314
H       -0.88999000      -0.51270800       1.69563300      -0.03114120      -0.01598352      -0.00654654
H        0.89222800      -0.51393800       1.69563700      -0.01207956       0.00685919       0.01227136
Br       0.00030000      -0.00060700      -4.46412600       0.00000977       0.00001646       0.04014161
Br      -0.00050400       0.00029300       3.97083000       0.00089937       0.00072145       0.03957802
6
Properties=species:S:1:pos:R:3:forces:R:3 charge=-1.0 dipole_moment="3.7394307584493833 1.9561247259376615 -3.3752510021393483" energy=-10.978125042781853 pbc="F F F"
C        2.90001500       0.78596600      -1.90716900       3.44536643      -3.69568956       6.17347215
H        3.89649900       0.02559500      -1.61571200      -0.98847405       3.23428913      -0.51230006
H        2.70723000      -0.06751000      -2.48685900      -3.03427065      -1.31686772       0.21614392
H        2.61234800       1.14610000      -0.76127400      -0.24463894      -1.48060329      -3.56960574
Br       3.01031800       2.05202500      -3.13600500       0.81487573       3.25815256      -2.30512785
Br      -3.77078000      -2.21831100       3.60191500       0.00806041       0.00031933      -0.00210471
6
Properties=species:S:1:pos:R:3:forces:R:3 charge=-1.0 dipole_moment="8.087283014744543 0.7161725614607857 2.511856048927596" energy=-13.008881785071722 pbc="F F F"
C        5.97106000       0.02721300       1.06578000      -1.56509026       0.37956325      -0.43901847
H        6.66704800      -0.69276700       0.80900100       1.61688051      -1.28459368      -0.62748600
H        5.92032000       0.76991500       0.24760500      -0.49695931      -0.60279878       0.58960028
H        5.04727900      -0.57863000       1.26920500       0.58651907       1.37112314       0.00386128
Br       6.70407700       0.92669100       2.58625300      -0.14422450       0.13720076       0.47265159
Br      -8.23153400      -0.91702800      -2.83541000       0.00231965      -0.00064689      -0.00043349
6
Properties=species:S:1:pos:R:3:forces:R:3 charge=-1.0 dipole_moment="-1.4096211951455389 1.2666978390531938 0.8092955794441787" energy=-15.017859525740263 pbc="F F F"
C       -4.03233200       3.98887500       2.70455100       0.66179532      -2.29971105      -4.01113566
H       -3.52551000       3.96515500       1.66741900      -0.06511165       0.49137230       1.57154116
H       -5.01364600       4.33854500       2.40724400      -0.45158345       0.17541096       1.01311859
H       -3.95933000       2.93708500       2.98008200      -0.77423995       0.00983139       0.24511922
F       -3.37300400       4.69443200       3.60609600       0.63963806       1.62131412       1.18297751
I        1.26508500      -1.46082900      -1.05164000      -0.00942104       0.00261070       0.00009770
6
Properties=species:S:1:pos:R:3:forces:R:3 charge=-1.0 dipole_moment="4.853832454656724 -7.855341468291148 6.851666928331028" energy=-12.5930505560572 pbc="F F F"
C        0.86722700      -3.18889100       0.56358500       0.46161692       0.64319390      -1.58513150
H        1.66092500      -2.82289900      -0.19052400      -1.61302231      -1.18423324       0.96101467
H       -0.16705800      -2.95810900       0.20524200       1.05727627       0.20870674       0.46681672
H        0.88570500      -4.27726000       0.76520300       0.50965851       0.85697549       0.21619842
I        1.44541600      -1.91078600       2.21318700      -0.41550779      -0.52262149      -0.05756906
Cl      -4.95235100       7.67430900      -7.14472500      -0.00012290      -0.00151695      -0.00092508
6
Properties=species:S:1:pos:R:3:forces:R:3 charge=-1.0 dipole_moment="3.6402333152659283 -4.007611947813822 3.236652611388941" energy=-12.219542198578967 pbc="F F F"
C        4.19659600      -3.07232700       3.82762200       0.03115303       3.00645492      -4.07921231
H        4.67637900      -3.84732900       4.33834500       0.29110186      -1.09459840       0.74769331
H        3.75979300      -2.21552800       4.36988900       0.57889318      -0.80493738      -0.01449125
H        4.79516700      -2.68995400       2.88008600      -0.21412869      -0.43463577       3.00546504
I        2.67749500      -3.63044400       2.39615900      -0.68717314      -0.67574613       0.34084089
I       -3.40222900       4.14340200      -3.04812300      -0.00023346       0.00308584      -0.00063661
6
Properties=species:S:1:pos:R:3:forces:R:3 charge=-1.0 dipole_moment="0.326754756447329 2.8235202588612758 -0.8096141441249384" energy=-14.182323182262143 pbc="F F F"
C        0.40677500       8.24665800      -2.52600000      -6.53476565      -2.31737813       8.15865242
H        0.85875900       8.65328100      -3.23357100       4.28331986       3.09528294      -6.37650653
H        0.57675300       7.21781600      -2.25071200       1.79651322       0.29524083       0.49124581
H        0.35495500       9.04488300      -1.60272700       0.14422501      -2.32944175      -2.14978539
F       -0.94073400       7.95781500      -2.94960000       0.30593302       1.25520906      -0.12444809
I        0.07991500      -2.75502400       0.92055500       0.00384380       0.00067157       0.00098525
6
Properties=species:S:1:pos:R:3:forces:R:3 charge=-1.0 dipole_moment="11.989821006451598 -0.62820902128039 -1.057701945627057" energy=-12.552407868235708 pbc="F F F"
C        2.90483100      -1.24236200      -1.56254700       1.80351228      -0.63272540      -0.74351527
H        3.16317200      -0.65406700      -2.46417300      -0.15351801      -0.74601592       0.50120112
H        1.97719400      -1.77417800      -1.69518000      -0.81410080       0.70335258       0.64609205
H        3.63235100      -2.05060200      -1.35014100      -0.19591242       0.61202030      -0.65153045
I        3.37186400       0.09487900       0.02386800      -0.63953882       0.06466582       0.24953124
Cl     -12.05356000       0.40614300       0.80116300      -0.00025300      -0.00099347      -0.00113437
6
Properties=species:S:1:pos:R:3:forces:R:3 charge=-1.0 dipole_moment="4.160995020650172 1.4833112384253961 -4.870951337418465" energy=-12.124135749771161 pbc="F F F"
C        5.40481900       1.00334300      -5.27913400       1.18395864       1.32897658      -2.13043527
H        6.42516100       0.81459700      -5.83636300      -2.61313832      -0.57862527       1.69789084
H        4.46649200       0.54071100      -5.36084100      -0.35614512      -2.38160841      -1.44808603
H        5.32819100       1.07003300      -4.21888700       1.33250825       1.47261024       0.93051624
Br       4.74564800       2.54829200      -6.43562500       0.44954868       0.16055975       0.95020678
I       -4.05182000      -1.84218100       5.13844900       0.00260247      -0.00090606      -0.00121716
6
Properties=species:S:1:pos:R:3:forces:R:3 charge=-1.0 dipole_moment="-1.1903809601000972 -4.36749637270571 -2.387504696217199" energy=-12.963327960372201 pbc="F F F"
C       -1.87670600      -5.77006100      -3.70116600       1.41803292      -1.79130056      -2.11948905
H       -1.11792700      -6.51859600      -4.07896900      -0.62057950       0.85031016       0.55688607
H       -1.93473900      -5.03500800      -4.50039100      -0.65563393      -0.12674563       0.12270539
H       -2.75676400      -6.38469700      -3.53584400      -0.30139451       0.69987953       0.32351371
Br      -1.14553800      -4.89481000      -2.21835200       0.15863759       0.36357407       1.11525825
I        1.07855700       4.22409500       2.11253800       0.00081710       0.00447578       0.00102073
6
Properties=species:S:1:pos:R:3:forces:R:3 charge=-1.0 dipole_moment="4.006215449155143 5.334598417289343 -4.872732547909223" energy=-12.303572107829542 pbc="F F F"
C        0.38911600       0.20220700      -0.12083300      -3.08026101      -2.98039935       4.27320720
H        0.98584500       0.32950900       0.76697200       0.72585539      -0.48316791       0.10364375
H        0.03344000      -0.94189100      -0.12355800       1.58248892       2.37830248      -1.42692739
H       -0.52924600       0.63445100       0.28000500      -0.27070839       0.07879969      -0.31507226
Br       0.99042000       1.38987200      -1.33578900       1.03490304       0.99792492      -2.62794376
F       -4.16549300      -5.54231600       5.17268900       0.00724640       0.00897469      -0.00746906
6
Properties=species:S:1:pos:R:3:forces:R:3 charge=-1.0 dipole_moment="0.0004921348058243723 0.00020108734001425963 -3.786712742213263" energy=-13.73282965714941 pbc="F F F"
C        0.00064300       0.00098900      -4.58782400       0.04571370       0.01135039      -0.03957905
H        0.00167000       1.02848100      -4.24576600      -0.00182908       0.01408142      -0.00040006
H       -0.88819100      -0.51190000      -4.24599900      -0.04831052      -0.02620674       0.01992862
H        0.89060600      -0.51313000      -4.24599600       0.00485887      -0.00326427       0.00340568
Cl       0.00038900      -0.00078700      -6.37539200      -0.00043452       0.00402943       0.02973172
Br      -0.00041600       0.00011400       4.24703900       0.00000309       0.00000668      -0.01467946
6
Properties=species:S:1:pos:R:3:forces:R:3 charge=-1.0 dipole_moment="1.8486493636493557 2.233608321486602 2.3087096803870324" energy=-11.413215957013522 pbc="F F F"
C        3.22525500       3.51447800       2.61635000       0.82865273      -1.71388978      -3.45105422
H        3.71044600       2.56345100       2.11151700      -0.71397946       2.52771701       0.98311485
H        3.86780200       3.92847500       3.36507900      -0.45681822      -0.73716876       1.73433777
H        3.27099000       4.46019500       1.89427700      -1.61617346      -2.43001920       0.91980297
Br       1.41163100       2.20201700       3.03137500       1.95730951       2.35851733      -0.17756143
I       -1.50203500      -2.05867100      -2.43711500       0.00056873      -0.00531190      -0.00820542
6
Properties=species:S:1:pos:R:3:forces:R:3 charge=-1.0 dipole_moment="3.545466143689313 0.16732054220818093 7.671593148758224" energy=-12.752931604419905 pbc="F F F"
C        2.88082200      -0.32868100       5.37249800       6.66864917      -1.90336210       4.35604404
H        2.50344300      -0.88518900       6.19111900      -0.78214147      -1.34896331       0.25516092
H        3.69630600       0.22419700       6.04317600      -1.42331808      -0.23761109      -1.88906523
H        3.45864500      -0.92081900       4.67316800      -0.03990301      -0.39170194       0.13658781
Cl       1.77953900       0.54254600       4.65705600      -4.42420039       3.88378789      -2.85739726
Cl      -3.36444000      -0.33349400      -7.54778800      -0.00017586      -0.00102021      -0.00168870
6
Properties=species:S:1:pos:R:3:forces:R:3 charge=-1.0 dipole_moment="0.0005053642360884683 4.3921708476798815e-05 -5.063635872506181" energy=-13.233689320960202 pbc="F F F"
C        0.00064800       0.00111300      -5.12274200       0.04631843       0.01290488      -0.04302999
H        0.00167500       1.03122200      -4.79148100      -0.00184708       0.01355846       0.00016918
H       -0.89045200      -0.51308300      -4.79171400      -0.04854552      -0.02642426       0.01919483
H        0.89287700      -0.51431400      -4.79171100       0.00446035      -0.00313726       0.00298299
Br       0.00039400      -0.00066200      -7.06474500      -0.00038567       0.00310486       0.03016676
I       -0.00041100       0.00023900       5.51655500       0.00000206       0.00000360      -0.00863171
6
Properties=species:S:1:pos:R:3:forces:R:3 charge=-1.0 dipole_moment="1.5021647640833646 -1.9868381712387866 -1.1752761258017632" energy=-14.308504215928993 pbc="F F F"
C        2.87655000      -3.85927200      -2.39121000      -6.27192998      -1.18753710       1.06352405
H        3.31892300      -3.15749700      -1.68560500      -0.12373383       0.42657999      -0.82520642
H        3.38288200      -4.70862700      -2.60466600       2.39101916      -2.44639147       0.21885386
H        1.75320900      -4.34021900      -1.92571700       3.47794128       1.70362182      -0.66495572
F        2.46339100      -3.50142300      -3.67163100       0.52008587       1.50968556       0.20301072
Br      -1.36813800       1.91070800       1.53165500       0.00709265      -0.00560295       0.00598553
6
Properties=species:S:1:pos:R:3:forces:R:3 charge=-1.0 dipole_moment="-2.0642726724605938 6.8452406002859405 2.786260891465476" energy=-14.805100222914266 pbc="F F F"
C       -2.18129000       6.28242500       2.64328100       2.17008785       1.89239172       3.93905581
H       -3.00675200       6.99179600       2.74597700      -0.59610671      -1.16924062      -0.35226276
H       -1.81359500       5.91245800       3.66387100      -1.87205069      -0.64240457      -1.35278192
H       -2.12139300       5.56114400       1.87678100      -0.42231093      -0.60289751      -0.87116746
F       -1.11178400       7.19246200       2.53935700       0.72208306       0.52061963      -1.36368957
Cl       1.76679600      -7.11130100      -2.76473700      -0.00168304       0.00093382       0.00080476
6
Properties=species:S:1:pos:R:3:forces:R:3 charge=-1.0 dipole_moment="7.438665215984338 4.512040069416803 -2.955523514036426" energy=-13.133811663299351 pbc="F F F"
C        4.85328300       3.36799200      -1.14521900       2.37792505       0.64805329      -2.60447268
H        5.89428500       3.73334300      -0.82881400      -1.96744840      -0.13944328      -0.80888403
H        4.49824300       2.66464400      -0.50534400      -0.92829584      -1.92524322       1.98929146
H        4.07285100       3.98834000      -1.49929700      -0.21960617       1.71060083       1.03499354
Cl       4.91316100       2.52291600      -2.79107600       0.73692039      -0.29556119       0.38687546
Cl      -7.47698900      -4.32258000       3.36194500       0.00061706       0.00124801       0.00130921
6
Properties=species:S:1:pos:R:3:forces:R:3 charge=-1.0 dipole_moment="0.0006667632853104399 0.00046567594529618023 -5.721760339854166" energy=-15.37205006372659 pbc="F F F"
C        0.00035800       0.00086500      -2.43789200       0.04435410       0.00509850      -0.06310567
H        0.00138500       1.02969600      -2.08858800      -0.00182908       0.01294653      -0.00365457
H       -0.88963600      -0.51269200      -2.08882400      -0.04581449      -0.02428253       0.02031274
H        0.89148100      -0.51392300      -2.08882000       0.00369828      -0.00210830       0.00371936
F        0.00010300      -0.00091000      -3.82817000      -0.00040778       0.00836483       0.05795524
F       -0.00070100      -0.00000900       6.14968000       0.00000000       0.00001646      -0.01489749
6
Properties=species:S:1:pos:R:3:forces:R:3 charge=-1.0 dipole_moment="-1.4105461969096045 4.009858834249876 1.6340219663483992" energy=-12.613417527500994 pbc="F F F"
C       -2.70891900       4.47152000       1.91356700       0.13886581       1.62346562      -1.42752183
H       -3.29607500       4.55919200       2.90975300       1.04718880       0.30287392      -2.16629753
H       -2.65377100       3.43890000       1.56156600       0.34418384       0.16547004       0.45601963
H       -2.95119300       5.10857000       0.93383200      -0.50336496      -1.31541041       2.80490818
Br      -0.82557800       5.24410400       2.10569300      -1.01893854      -0.77585769       0.33273780
I        1.01980700      -4.21659300      -1.70916600      -0.00702940       0.00045868       0.00020106
6
Properties=species:S:1:pos:R:3:forces:R:3 charge=-1.0 dipole_moment="-0.43163926711271394 -1.6595367747329455 5.205563846265456" energy=-15.13463151469152 pbc="F F F"
C       -0.37771200      -1.04346300       2.28387100       1.31838570      -0.27497590      -2.90494056
H        0.46553000      -1.36588800       1.63166100      -0.16959769       0.21992858       0.61397845
H       -1.00907900      -0.49926300       1.55411900      -0.08342973       0.21201010       1.16640263
H       -0.80380100      -1.91771900       2.65213200      -1.29496552      -1.46941488       0.37315657
F        0.08899900      -0.37101300       3.35056000       0.23384288       1.32211637       0.74220246
F        0.31251500       1.48697500      -5.52179800      -0.00396824      -0.00839671       0.01025665
6
Properties=species:S:1:pos:R:3:forces:R:3 charge=-1.0 dipole_moment="-8.53702014245854 -3.1204389458225945 1.1044203556616858" energy=-12.07192216777011 pbc="F F F"
C       -1.60582100      -2.06551700      -0.76368900       2.73720897       1.72436343      -0.20372652
H       -1.28484400      -2.95999900      -0.31424400      -0.63784601      -1.23331560       1.48400795
H       -0.62289200      -1.50326600      -0.67106900      -1.07335492      -0.71934330      -1.26860708
H       -1.85243700      -2.37382100      -1.80255800      -0.62947912       1.30757472       0.73806247
I       -2.56031700      -0.57740400       0.54779200      -0.39544495      -1.07560720      -0.74866622
Cl       8.77011100       2.93133000      -1.27429200      -0.00131692      -0.00336043      -0.00114466
6
Properties=species:S:1:pos:R:3:forces:R:3 charge=-1.0 dipole_moment="-4.468107777395793 -1.0351505296216683 -2.3516084893158116" energy=-13.458211511980844 pbc="F F F"
C       -9.28634800      -2.09545100      -5.09228200       0.24036063       2.50958097      -1.24709157
H      -10.29725300      -1.80289400      -4.94959300      -0.82478425       0.22008490       0.00481876
H       -9.22509500      -3.03185900      -5.48956500      -0.07935402      -2.54213113      -1.17257328
H       -8.79366600      -1.40031000      -5.80647000      -0.33256965      -0.33467435       0.64788514
Cl      -8.48525100      -2.12102600      -3.59060500       0.99450226       0.14642228       1.76765207
I        4.30723300       1.03519300       2.03470900       0.00228314       0.00066900       0.00019232
6
Properties=species:S:1:pos:R:3:forces:R:3 charge=-1.0 dipole_moment="-2.645886052819206e-05 0.0010583544211276823 5.926509586165527" energy=-13.757816328163475 pbc="F F F"
C        0.00051800       0.00086700       1.08773500       0.04282481       0.01047262      -0.06153473
H        0.00154500       1.02817900       0.74364400      -0.00176326      -0.00301796       0.00911559
H       -0.88815900      -0.51193000       0.74340700      -0.03024697      -0.01544256      -0.00632594
H        0.89032400      -0.51316100       0.74341100      -0.01208419       0.00695689       0.01325507
F        0.00026400      -0.00090800      -6.40076900       0.00000566       0.00001954       0.02355593
Cl      -0.00054100      -0.00000700       2.87353200       0.00126550       0.00101764       0.02346492
6
Properties=species:S:1:pos:R:3:forces:R:3 charge=-1.0 dipole_moment="4.143605728333834 -4.419402306935496 0.09273830615131315" energy=-11.191851602291644 pbc="F F F"
C        2.09866700      -0.64572200      -0.33669100      -0.10288321       9.08772833       0.66709745
H        2.76499700      -1.23687400      -0.79247300       3.74458681       0.74147793      -3.47929676
H        2.65807900       0.10985600       0.45150700      -1.51210239      -2.42387118      -1.51892456
H        1.37413000       0.14531000      -0.92543300       1.90833873      -2.60764388       1.04265286
Br       1.40914900      -2.15645000       0.19411300      -4.05087001      -4.79525122       3.29179751
Cl      -4.04173000       4.72539900      -0.20631700       0.01300978      -0.00135394      -0.00372244
6
Properties=species:S:1:pos:R:3:forces:R:3 charge=-1.0 dipole_moment="1.4662653821187137 -11.217583177885995 2.3492134332607995" energy=-12.941293680848462 pbc="F F F"
C       -0.88762000      -2.87571400      -0.11098100      -1.04473597      -0.04545505       1.24685349
H       -1.58904100      -2.02781900      -0.17048200       0.51132047      -0.54422185      -0.90987337
H       -1.43835300      -3.63827200       0.47496900       0.90228758       0.53347978       0.51212214
H       -0.56283600      -3.43127500      -0.96282300      -0.05650257       0.52256699      -1.02189531
Br       0.71730600      -2.09512200       0.68367700      -0.31112819      -0.46701727       0.17368626
F       -1.79886400      11.07565900      -2.51160900      -0.00192319       0.00053839      -0.00099862
6
Properties=species:S:1:pos:R:3:forces:R:3 charge=-1.0 dipole_moment="8.45299368072474 -7.690094771571167 0.041095902172387906" energy=-12.363407011833278 pbc="F F F"
C        1.95222900      -2.32809900      -1.06290000       1.56727673      -2.40373944      -0.37957764
H        2.03950400      -3.31045200      -0.42230200      -0.80141189       1.79941239      -1.56878237
H        3.02537200      -2.10234700      -1.21708500      -0.60958444       0.49897968       0.30938344
H        1.58722400      -2.49341700      -2.15176300      -0.24145232       0.41291457       2.31813250
I        1.06592700      -0.86189100       0.22695300       0.08654128      -0.30840025      -0.67859954
F       -8.31773200       7.50611400      -0.20666300      -0.00185428       0.00158431      -0.00055844
6
Properties=species:S:1:pos:R:3:forces:R:3 charge=-1.0 dipole_moment="1.7576319417867963 -2.8667799666476594 -0.019260462932892134" energy=-13.38136101513267 pbc="F F F"
C        3.47623800      -5.82688800      -0.31628400      -0.92664725      -3.00872931      -1.68860401
H        2.98548300      -4.94520900      -0.30459900      -1.43219559       2.98948049       0.27222328
H        2.72289900      -6.61488800      -0.31948700      -0.14290090       0.13040688      -0.15465084
H        3.96346700      -5.91591300      -1.27514100       0.90769359      -0.03010145       0.12068245
Cl       4.37314600      -6.07854000       1.09676300       1.59295896      -0.07602444       1.45437855
I       -1.97873100       2.93910400      -0.28015200       0.00140691      -0.00526202      -0.00334758
6
Properties=species:S:1:pos:R:3:forces:R:3 charge=-1.0 dipole_moment="-0.0002767596811248889 0.0009265892956972858 10.53606272770456" energy=-12.866729719850625 pbc="F F F"
C        0.00073800       0.00096300       1.19343200       0.04457265       0.01172115      -0.02747430
H        0.00176400       1.03226700       0.86422300      -0.00181571      -0.00294700       0.00783878
H       -0.89139800      -0.51383000       0.86398300      -0.03129187      -0.01608534      -0.00610174
H        0.89400300      -0.51506100       0.86398700      -0.01209653       0.00686382       0.01206876
Cl       0.00048300      -0.00081300     -10.94130100       0.00000103       0.00000206       0.00550679
I       -0.00032100       0.00008800       3.32545900       0.00063198       0.00045920       0.00894693
6
Properties=species:S:1:pos:R:3:forces:R:3 charge=-1.0 dipole_moment="2.922346748820126 2.748598820212437 1.311016430437915" energy=-12.857962251848164 pbc="F F F"
C        6.23009400       5.63474000       2.95939800       2.14451874      -4.56128853      -1.21937610
H        6.04875900       4.53731800       3.21534400      -0.16966300       1.21905677      -0.80021838
H        6.06568000       6.03244900       3.88545600      -1.46962879       2.34044350       1.77825684
H        7.38928200       5.58195900       2.93748400      -1.89244006       0.83871808      -1.34929550
Cl       5.18207600       6.00164900       1.49853600       1.38746404       0.16583102       1.58863848
I       -2.73546400      -2.86770200      -1.00509000      -0.00078110      -0.00278708       0.00117757
6
Properties=species:S:1:pos:R:3:forces:R:3 charge=-1.0 dipole_moment="-7.596825171500448 8.34594483526815 1.019890646400639" energy=-12.120169032871532 pbc="F F F"
C       -1.56547300       2.90769800       1.83394800       2.92673683      -5.21907807       1.26793396
H       -2.12879700       3.68086500       1.71716200      -2.40270277       5.59635612      -0.11578707
H       -0.43586800       3.00661000       1.84758700      -1.78525487       0.05265928       0.00514426
H       -2.00696300       2.36988500       2.73754500       0.95241999       0.08730593      -1.54201204
I       -2.20863300       2.13236400      -0.10216500       0.30745820      -0.51745460       0.38306817
Cl       7.70717600      -8.20699000      -0.69948400       0.00155500      -0.00031059       0.00134623
6
Properties=species:S:1:pos:R:3:forces:R:3 charge=-1.0 dipole_moment="-6.803792266091317 1.362738210998425 2.381672634179575" energy=-11.247281684798958 pbc="F F F"
C       -7.32456700       1.93684600       2.59038000       8.65495970       4.76652274       3.84131737
H       -6.24451500       1.46546300       2.37284400      -3.16440911       0.22713847      -1.23167935
H       -6.95062000       1.99975100       3.71281300      -0.60917152       0.26270249      -1.59343359
H       -7.35443900       3.09833400       2.43863800       0.45261343      -2.36891333      -0.65768721
Br      -8.93040700       1.35896300       2.82590200      -5.33155510      -2.88790751      -0.35970404
I        7.11436300      -1.24053500      -2.32024800      -0.00145473       0.00089629       0.00116574
6
Properties=species:S:1:pos:R:3:forces:R:3 charge=-1.0 dipole_moment="4.116499154899912 -1.6024740085862148 1.6609793118089422" energy=-11.819205404926132 pbc="F F F"
C        5.58304600      -2.80675700       2.51236000       0.42550578       3.41261314       0.38540634
H        6.09362500      -3.12965300       1.52706500      -1.14620507      -0.27569427       2.36242541
H        4.58525100      -3.06272300       2.94306700       1.54682103      -1.26514123      -0.61896074
H        6.31735400      -2.34493700       3.39995000      -1.98377079      -1.22797902      -2.84752885
Br       4.47898300      -1.17237000       1.55834700       1.16674202      -0.64419869       0.72121197
I       -3.91054500       1.25303400      -1.46200700      -0.00899063       0.00028694      -0.00217515
6
Properties=species:S:1:pos:R:3:forces:R:3 charge=-1.0 dipole_moment="6.975344638452377 -7.025811739846641 7.884525062276533" energy=-12.671291638568503 pbc="F F F"
C        0.49220900      -1.98913000      -0.20895200      -2.62218964      -0.47888497       1.53659884
H        1.28534400      -2.15186100      -0.87651800       0.67249111       0.32997026      -1.11896372
H       -0.43777600      -1.44879000      -0.49599700       1.17972095      -0.44931677      -0.66918518
H        0.13844100      -2.96876200       0.16998600       0.44084138       0.59806024      -0.01906679
I        1.13379000      -0.81104800       1.43404700       0.32894491       0.00274800       0.27155891
F       -7.11446200       6.83219100      -8.17202800       0.00026688      -0.00213042      -0.00025557
6
Properties=species:S:1:pos:R:3:forces:R:3 charge=-1.0 dipole_moment="-8.28014694090664 8.468701247865907 5.446201361820046" energy=-11.960705892563531 pbc="F F F"
C       -1.66433100       2.10449500      -0.08408800      -4.89925544       1.41887316      -3.07250296
H       -0.78429300       2.65439400      -0.01071200       1.72491570       0.16089296      -0.66424301
H       -2.48256400       2.78184800      -0.70831800       2.30080377      -1.07665262       1.65240082
H       -1.82672800       1.21565000      -0.76384700       1.05344121       0.22073282       1.92166219
I       -2.40399800       2.35626400       1.89412600      -0.17926093      -0.72508200       0.16376900
Cl       8.38185000      -8.48004900      -5.78831000      -0.00106598       0.00138274      -0.00044634
6
Properties=species:S:1:pos:R:3:forces:R:3 charge=-1.0 dipole_moment="-5.3772950805236865 1.4576011636501518 -4.591789720934827" energy=-12.680449984964124 pbc="F F F"
C       -1.31917900      -0.61774100      -2.10905100       0.60538737       0.61571035      -1.46790924
H       -0.97036200      -1.62646800      -2.13047800       0.83871808      -0.45973282       0.20339073
H       -0.90540300      -0.04213500      -2.98103500      -0.53982012      -0.71369818       0.91416608
H       -2.37709200      -0.74353800      -2.19948600      -0.74144193       0.66317292       0.25524526
I       -0.67734400       0.39159700      -0.36714100      -0.16708778      -0.10326374       0.09270319
F        5.34079700      -1.62622600       4.38042200       0.00564460      -0.00193861       0.00137863
6
Properties=species:S:1:pos:R:3:forces:R:3 charge=-1.0 dipole_moment="6.597241700555196 -1.686704732723293 1.3474968489797652" energy=-14.866324793862017 pbc="F F F"
C        2.95095100      -1.10124900       0.56217000       1.47332347      -2.05945122      -0.17825100
H        2.47264700      -0.51923300      -0.26928800      -0.42597732      -1.37615067       1.05186049
H        2.39674400      -1.52896600       1.46907100       0.15056690       1.75220282      -1.22364465
H        3.49308500      -2.07799100       0.25851400      -1.10749043       1.57208315      -0.47891839
F        4.00481800      -0.25737800       0.90343700      -0.09560339       0.11547031       0.82886973
F       -6.90128300       1.45000900      -1.44025100       0.00504965      -0.00416467       0.00042063
6
Properties=species:S:1:pos:R:3:forces:R:3 charge=-1.0 dipole_moment="-4.373453849742239 -5.839327640725135 6.929305691956112" energy=-12.774067149708182 pbc="F F F"
C       -2.25031600      -2.78969900       1.62775500       0.05257701      -0.51250626      -3.02153752
H       -1.64098500      -3.15203600       0.75803200       0.52790254       0.96617590       1.08236149
H       -2.98697100      -2.13357400       1.14323900      -0.10545843      -0.43767224       0.80320292
H       -2.55899000      -3.71011600       2.01750600      -1.60747747      -1.07857837       0.26327224
Br      -1.46124200      -2.02523900       3.11992800       1.13480326       1.06462962       0.87471816
Cl       4.22543100       5.68337000      -7.22839800      -0.00118116      -0.00119608      -0.00132566
6
Properties=species:S:1:pos:R:3:forces:R:3 charge=-1.0 dipole_moment="7.460012224658483 1.1775198371745537 -7.031600938530209" energy=-12.507873711144398 pbc="F F F"
C        1.76410200       0.79377900      -1.84835500       4.57314492       5.33441623      -0.29189891
H        1.40769600       1.82860800      -2.20755300      -0.11768660      -2.31789853      -1.04906262
H        2.29498900       1.36165300      -0.97269100      -0.87308654      -2.78993562      -0.64627768
H        1.17196300      -0.03478600      -1.86253500      -1.90389381      -1.56551758       0.89390990
Cl       3.24517100       0.03296100      -2.93368500      -1.68044796       1.33662459       1.09588704
F       -7.84746200      -0.94205300       7.33395000       0.00296140       0.00191290      -0.00323548
6
Properties=species:S:1:pos:R:3:forces:R:3 charge=-1.0 dipole_moment="0.0006032620200427789 -5.291772105638412e-06 -5.585132075858688" energy=-13.247492559863257 pbc="F F F"
C        0.00055500       0.00116800      -3.28985500       0.04635339       0.01292391      -0.03477366
H        0.00158100       1.03120100      -2.95860800      -0.00184914       0.01356411       0.00016095
H       -0.89048000      -0.51299100      -2.95884200      -0.04857380      -0.02644328       0.01918969
H        0.89271800      -0.51422100      -2.95883800       0.00445161      -0.00313726       0.00296448
Br       0.00030000      -0.00060700      -5.23231400      -0.00038258       0.00309767       0.02604013
Br      -0.00050400       0.00029300       6.04989700       0.00000257       0.00000463      -0.01273725
6
Properties=species:S:1:pos:R:3:forces:R:3 charge=-1.0 dipole_moment="-8.588175174226537 1.2304481417751492 5.834452860261421" energy=-12.198988030361537 pbc="F F F"
C       -2.47898900      -1.08776100       0.58891900       2.50402430      -0.52098422      -0.77811461
H       -3.39699600      -1.57173500       0.69475500      -1.91376067       0.22952291      -0.13095349
H       -1.79815600      -1.99355900       0.51037300       0.19817088       1.49828425       1.46873971
H       -2.21602000      -0.57926100      -0.32167700      -0.98960174      -0.08769776      -0.65582110
I       -2.33166900       0.67881600       1.86642400       0.20353317      -1.11704156       0.09673571
Cl       8.58021100      -1.48859600      -6.07867200      -0.00246929      -0.00160283      -0.00022523
6
Properties=species:S:1:pos:R:3:forces:R:3 charge=-1.0 dipole_moment="-2.6159695483971896 5.342207985577252 -2.2578642172872163" energy=-12.397285285765962 pbc="F F F"
C       -4.07309900       6.06776300      -2.82620100      -5.91736095      -0.46497787       1.08815162
H       -4.57052400       5.57998800      -1.91131700       1.89203125      -0.21255620      -1.03117442
H       -4.09122300       5.37919200      -3.70496500      -0.68941874       0.88572711       0.80164020
H       -4.87736300       6.92983200      -2.75293600       1.68783628      -1.34386584      -1.54012022
Br      -2.41867100       6.73538600      -2.69046700       3.02842808       1.13716096       0.68124623
I        2.31379600      -5.47234100       2.25458100      -0.00137040      -0.00112511       0.00006582
6
Properties=species:S:1:pos:R:3:forces:R:3 charge=-1.0 dipole_moment="-3.60019841340072 -4.036455280852815 -3.0090291509737472" energy=-12.14133860161962 pbc="F F F"
C       -5.33321000      -5.22960700      -3.31595400       2.69721546      -2.50324011      -4.56060873
H       -5.79360100      -5.57297300      -4.28335900       0.31763205       0.98009791       0.58413514
H       -5.94416800      -4.49897700      -2.90617500      -0.57699416       0.68309691       1.91669019
H       -4.78408700      -6.15813100      -3.11329300      -1.62722612       0.23108254       2.19315990
Br      -3.48920500      -4.50155200      -3.81630000      -0.81081801       0.60693723      -0.13637544
I        3.21968500       3.87098200       3.08998200       0.00069883       0.00216487       0.00272691
6
Properties=species:S:1:pos:R:3:forces:R:3 charge=-1.0 dipole_moment="8.09281820836704 1.1377945039775261 0.482260359075251" energy=-13.393699950668685 pbc="F F F"
C        4.93461800       0.60077700      -0.48247400       1.04605546      -3.03085057       1.62882534
H        4.03062100      -0.01693200      -0.19982500       0.79811728       1.21826127      -0.74884259
H        5.69991700      -0.15694800      -0.90428500      -1.42008466       1.75607336       0.06547315
H        4.77477100       1.53060300      -1.00448500      -0.02571566      -0.13783788      -0.15452228
Cl       5.70034100       0.94965000       1.17379000      -0.40098876       0.19439753      -0.78833166
Cl      -8.29522500      -1.24149600      -0.87947000       0.00293003      -0.00001903      -0.00185377
6
Properties=species:S:1:pos:R:3:forces:R:3 charge=-1.0 dipole_moment="0.00044450885687362656 0.00026458860528192057 -0.9517146296548571" energy=-14.106438829715737 pbc="F F F"
C        0.00064300       0.00098900      -1.30454800       0.04764666       0.01191604      -0.37074385
H        0.00167000       1.02811300      -0.97628900      -0.00190930       0.01301544      -0.00134726
H       -0.88787300      -0.51171600      -0.97652300      -0.04858100      -0.02647259       0.01804812
H        0.89028800      -0.51294700      -0.97651900       0.00327816      -0.00255208       0.00161928
Cl       0.00038900      -0.00078600      -3.14831800      -0.00040778       0.00390962       0.19312277
Br      -0.00041600       0.00011400       1.83651500      -0.00002571       0.00017946       0.15874558
6
Properties=species:S:1:pos:R:3:forces:R:3 charge=-1.0 dipole_moment="4.932731189220162 0.5170579940875081 0.12931662247711753" energy=-12.755917490925704 pbc="F F F"
C       10.37869800       0.84893800       0.41932400       6.67211965      -1.90568689       4.36252065
H       10.00132000       0.29243000       1.23794400      -0.78413973      -1.34340356       0.25052420
H       11.19418200       1.40181500       1.09000200      -1.42694951      -0.23829809      -1.88782698
H       10.95652200       0.25680000      -0.28000700      -0.03791503      -0.39627439       0.13850431
Cl       9.27741600       1.72016500      -0.29611900      -4.42293283       3.88586174      -2.86489665
I       -4.75736400      -0.68466900       0.00887000      -0.00120019      -0.00092405       0.00057233
6
Properties=species:S:1:pos:R:3:forces:R:3 charge=-1.0 dipole_moment="4.3561444631846955 6.555230321808533 0.4787466223971071" energy=-12.870679824105629 pbc="F F F"
C        4.31750200       6.22743000       0.71819100       0.37429763      -7.23682908      -2.80730651
H        4.36103300       5.10088000       0.05096000       0.26701680       1.45359488       3.03722125
H        3.83746400       5.90778600       1.77462400       1.66350336       1.54044469      -2.54702549
H        5.43460800       6.26130800       0.35087800      -2.15815844       1.80962173       1.62885414
F        3.36248400       6.60828000      -0.22535200      -0.14732834       2.43274714       0.68742253
Cl      -4.10591000      -6.71229900      -0.26220200       0.00080373      -0.00077133       0.00093331
6
Properties=species:S:1:pos:R:3:forces:R:3 charge=-1.0 dipole_moment="-4.38150739770981 1.9793238548487802 0.015113301133703304" energy=-12.562740114393707 pbc="F F F"
C       -9.14860500       4.09655400       0.17144800       4.49824765      -0.20492208       1.36170210
H       -9.52694400       4.97472000      -0.25603900      -0.80010422       0.60454507      -1.54066067
H       -8.54720600       4.61532600       1.11523800      -1.87195505      -2.54639608      -1.91765229
H       -9.70920300       3.16511400       0.11345200      -0.39294738       0.79001984       1.18000686
Cl      -7.66419000       3.31439900      -0.90680000      -1.43638597       1.35780431       0.91440211
I        4.01823000      -1.76753300       0.25309900       0.00428397      -0.00167739       0.00168150
6
Properties=species:S:1:pos:R:3:forces:R:3 charge=-1.0 dipole_moment="4.184299455826194 0.4383465882566106 -7.0320523266908195" energy=-12.54643640571555 pbc="F F F"
C        1.89796000       0.91141500      -2.65341200      -2.98768740       1.15693892       0.46870289
H        0.78072000       1.18900500      -2.81590900       2.10521788      -0.20392809       0.12571358
H        2.51574600       1.78455900      -2.64162700      -0.03879898       0.58486122       0.43444345
H        1.88438400       0.42304000      -1.67566700       0.66577230      -0.61158167      -0.60606511
I        2.53586900       0.01042500      -4.41258800       0.25235225      -0.92812872      -0.41865790
Br      -4.31341900      -0.26907500       7.34059500       0.00306270       0.00177612      -0.00419604
6
Properties=species:S:1:pos:R:3:forces:R:3 charge=-1.0 dipole_moment="0.0315760041543444 3.0791160266268753 0.6828920775112152" energy=-13.40829596142363 pbc="F F F"
C        0.18184400       9.25154000       1.85239600       9.87289650       0.48980496       1.91251626
H        0.66179100      10.16944900       2.65230200      -1.35817249      -2.14009593      -2.90239825
H        1.16378000       8.81557900       0.98138700      -2.83197419       1.78919843       2.60838744
H        0.16800700       8.45301000       2.53085500      -0.93447420      -1.50438960       0.76115664
F       -0.85925900       9.54505900       1.24337500      -4.74820466       1.36416933      -2.38014288
I        0.08771100      -3.18590200      -0.53715700       0.00084024       0.00099296       0.00131898
6
Properties=species:S:1:pos:R:3:forces:R:3 charge=-1.0 dipole_moment="-5.415784784934047 2.633429221282533 -0.015002173919484897" energy=-12.127943676422557 pbc="F F F"
C       -2.77834500       1.18858000       0.42642100      -1.62258887      -3.12277934       0.64046750
H       -3.34163100       0.35553800       1.13448500       2.22364033       2.34406722      -1.63452085
H       -3.53816300       1.42896700      -0.27958800      -0.48459333      -1.84284707      -2.50908937
H       -3.01342900       2.18721600       0.65673600       1.98868725       1.76016502       2.49561113
Cl      -1.14335300       0.68808000      -0.29024600      -2.11441266       0.86672563       1.00743646
F        5.11114400      -2.53339600       0.09600300       0.01064437      -0.00581892       0.00052553
6
Properties=species:S:1:pos:R:3:forces:R:3 charge=-1.0 dipole_moment="-2.4125072610619194 2.521167980301888 3.6236642476259635" energy=-12.70358551375015 pbc="F F F"
C       -4.66368100       5.22744000       7.59255500      -5.74262568      -0.12646486       1.80809552
H       -5.07574800       4.26437600       7.79590700       0.08244346      -1.13702212      -0.37879809
H       -5.06322000       5.66204100       8.59815300       1.09278989       0.57985220      -2.31071589
H       -3.65602000       5.10293200       7.49885900       2.58842899       0.67450634      -1.02332330
Cl      -5.81518600       5.64992000       6.07845100       1.97679950       0.01033018       1.90271830
I        2.65349500      -2.68759700      -3.26003600       0.00130869      -0.00088857       0.00116522
6
Properties=species:S:1:pos:R:3:forces:R:3 charge=-1.0 dipole_moment="-0.30561042264482957 -2.832272849924002 -3.006483279413724" energy=-12.738155110267716 pbc="F F F"
C       -0.02904800      -4.10382900      -3.76809900      -2.59374192       6.78326073       1.32779748
H       -0.65496100      -4.72254800      -3.20328800      -0.51971255      -0.12138179       1.91260470
H        0.55045300      -3.13496800      -3.40509400      -1.18296414      -2.95603506      -0.15435516
H        0.41983800      -4.70490400      -4.38688300       3.02916033      -2.66708727      -3.75138223
Cl      -1.39862300      -3.16524600      -4.81615000       1.26115602      -1.03127521       0.66513158
Br       0.67530100       2.59984500       3.29938300       0.00526408      -0.00667150      -0.00055227
6
Properties=species:S:1:pos:R:3:forces:R:3 charge=-1.0 dipole_moment="-0.982122739705487 -1.9531909674822956 -4.852913803019186" energy=-11.112961401105371 pbc="F F F"
C       -1.47624200      -1.15118900      -5.41613700      -5.34014773       2.98523611       0.15381317
H       -2.47924400      -1.52975800      -5.99321500       1.18228331       0.60176571       3.02421918
H       -1.12991900      -1.10665200      -6.32456800       4.63902276      -1.13393526      -4.61492843
H       -1.47730700      -0.00039500      -5.36542300      -0.94533711      -1.60289936       0.83992393
I       -0.67607600      -1.90090100      -3.72698500       0.46317501      -0.85098122       0.59556627
I        0.93916900       2.08097500       4.67377800       0.00089783       0.00097599       0.00146296
6
Properties=species:S:1:pos:R:3:forces:R:3 charge=-1.0 dipole_moment="-3.2921209666002422 2.464378798773019 2.9743532267199195" energy=-13.168304667605485 pbc="F F F"
C       -4.36168400       2.50281100       2.80559400       0.00511290       0.38958078      -1.27676107
H       -3.89609900       1.54851200       2.75640900       0.21675327      -0.74731742       0.01399092
H       -4.09710600       3.06133200       1.90286000      -0.05098961      -0.07106221       0.30369204
H       -5.42945600       2.41745900       2.86009200      -0.37872558      -0.04769808       0.21618763
Br      -3.67505400       3.40970000       4.31267400       0.21329411       0.47524994       0.74195307
I        3.17395600      -2.66761600      -3.30748100      -0.00550885       0.00111072       0.00057181
6
Properties=species:S:1:pos:R:3:forces:R:3 charge=-1.0 dipole_moment="7.15864051147027 -8.259371443619905 -2.1489833603276534" energy=-12.58407531316338 pbc="F F F"
C        1.59768400      -3.65066000      -0.80469300      -2.57422570      -2.32921498       0.07933397
H        1.59905000      -4.69714100      -0.92865100       0.97081932      -1.68045001      -0.41520594
H        1.03640300      -3.41810500      -1.67712500      -0.81591240       1.24452612      -0.15110683
H        1.09860200      -3.69097500       0.14583100      -0.41532884       1.46078985       0.36441739
Br       3.25192500      -2.96650700      -0.83557200       2.83593317       1.30550704       0.12283446
Cl      -7.47867800       8.09046600       2.14900800      -0.00085515      -0.00122642      -0.00013061
6
Properties=species:S:1:pos:R:3:forces:R:3 charge=-1.0 dipole_moment="3.4775144980808106 -4.938218227716498 -0.3374615989486671" energy=-12.763504516364558 pbc="F F F"
C        5.07952900      -6.91794900      -0.06558600      -2.11081569      -5.74736062      -5.25549569
H        4.54430300      -7.71346200       0.57330000       0.94577574       1.49741214      -1.24855659
H        5.60141400      -6.26698900       0.42465700       2.17017013       4.37249190       3.17055096
H        5.93038200      -7.38827100      -0.79681700      -2.51681914       0.66783227       1.71423585
Cl       3.80457200      -6.12171800      -1.25766500       1.51207771      -0.79302392       1.61688154
Br      -3.17802800       4.76987500       0.61636300      -0.00110403       0.00300459       0.00183011
6
Properties=species:S:1:pos:R:3:forces:R:3 charge=-1.0 dipole_moment="-3.772303246769609 -0.8008726657836341 0.08780637454885816" energy=-14.522573695946447 pbc="F F F"
C       -7.35845000      -1.55652000       0.09045600       2.10135969      -0.77526891      -4.65584189
H       -8.18451400      -1.16268700      -0.66078500       2.04704101      -1.36407934       0.97737666
H       -7.35876700      -2.59062900       0.37233200      -0.62588112      -1.10888448      -1.03010793
H       -6.20036400      -1.40483700      -0.26936100      -2.94259591       0.18373259       0.39358604
F       -7.57317500      -0.96437800       1.20419500      -0.57903407       3.06648349       4.31727231
Br       3.83008300       0.66219100      -0.30921900      -0.00116265      -0.00176326      -0.00191187
6
Properties=species:S:1:pos:R:3:forces:R:3 charge=-1.0 dipole_moment="-0.0002503008205966969 0.0009318810678029243 6.824400014202304" energy=-12.921097615975992 pbc="F F F"
C        0.00073800       0.00096300       0.19216200       0.04469760       0.01174531      -0.05694480
H        0.00176400       1.03205500      -0.13703500      -0.00182703      -0.00589245       0.00866102
H       -0.89121400      -0.51372500      -0.13727300      -0.02880767      -0.01466043      -0.00531139
H        0.89381900      -0.51495600      -0.13726900      -0.01469437       0.00834683       0.01287969
Cl       0.00048300      -0.00081200      -7.29396700       0.00000566       0.00000823       0.02357290
I       -0.00032100       0.00008800       2.32558600       0.00062683       0.00046537       0.01794424
6
Properties=species:S:1:pos:R:3:forces:R:3 charge=-1.0 dipole_moment="-0.44964716758820145 2.362744494534917 5.029681216790353" energy=-13.73960856356095 pbc="F F F"
C       -0.38988900       2.25575200       4.42409600      -0.30429420      -0.26658897       3.85275415
H       -1.31018600       3.00174000       4.44004100       2.63401465      -0.95717498      -2.71600611
H       -0.64994100       1.18910100       4.18268800      -0.07536418       1.26340162      -0.07852561
H        0.78986600       2.29942300       4.44970200      -2.60568007       1.07779778      -1.63917043
F       -0.52592700       2.38577300       5.89064500       0.35149451      -1.12057066       0.57623054
Cl       0.48487900      -2.44098400      -5.44898900      -0.00041395       0.00329718       0.00634188
6
Properties=species:S:1:pos:R:3:forces:R:3 charge=-1.0 dipole_moment="5.291772105638412e-05 0.0008572670811134226 2.79562203632035" energy=-13.952850039980715 pbc="F F F"
C        0.00046900       0.00103600       1.11274100       0.04299913       0.01043457      -0.32530268
H        0.00149600       1.02536500       0.76227700      -0.00176892      -0.00272640       0.00904823
H       -0.88562500      -0.51027000       0.76204200      -0.03043569      -0.01561174      -0.00670647
H        0.88769200      -0.51150100       0.76204600      -0.01198751       0.00683451       0.01317125
Cl       0.00021500      -0.00073900      -3.42690100       0.00003137       0.00005296       0.15650152
Cl      -0.00059000       0.00016200       2.89967700       0.00116420       0.00099605       0.15514963
6
Properties=species:S:1:pos:R:3:forces:R:3 charge=-1.0 dipole_moment="-0.10327104935037586 5.339423455095264 0.08086939049557676" energy=-12.34721716247102 pbc="F F F"
C        0.95201200       4.99915700       1.12023900       1.26230479       0.39975926      -2.79233394
H        1.43495900       4.20537400       1.68799500      -0.61412089      -0.03212645      -0.08730130
H        0.57000700       5.84470600       1.67858700       0.23092879      -0.10018664      -0.00984116
H        1.59879400       5.26236300       0.20437700      -0.11979233       0.29243318       2.49376611
I       -0.54161200       4.42783300      -0.32135100      -0.76382081      -0.55743835       0.39245476
I        0.36584200      -5.28268900       0.12715500       0.00402583      -0.00286112       0.00283901
6
Properties=species:S:1:pos:R:3:forces:R:3 charge=-1.0 dipole_moment="2.379836918436129 -0.9411257936714745 -3.9309611580408603" energy=-13.380955007837557 pbc="F F F"
C        2.51120100      -1.04769600      -3.63400700       1.85340402       2.93528883       5.78556567
H        3.26404700      -1.87573300      -4.15295300      -2.47423086       2.63967365       1.00577964
H        2.12714500      -1.31802500      -2.49103100       0.75670657      -0.63043968      -3.30195028
H        2.94078000       0.07824600      -3.15381400       0.76011431      -3.55770976      -1.72729089
F        1.46756300      -0.43515500      -4.25349900      -0.90233129      -1.38325618      -1.76326422
Cl      -2.15336700       0.78341700       4.11078400       0.00606832      -0.00285084       0.00070808
6
Properties=species:S:1:pos:R:3:forces:R:3 charge=-1.0 dipole_moment="0.00025929683317628215 0.000836099992690869 0.5859367581689187" energy=-15.759373411135275 pbc="F F F"
C        0.00035800       0.00086500       0.15412500       0.04841388       0.00970540       1.38018679
H        0.00138400       1.05657900      -0.02472700      -0.00204094      -0.00060781       0.00113180
H       -0.91291700      -0.52613400      -0.02496100      -0.03788881      -0.01995433      -0.00829541
H        0.91476200      -0.52736500      -0.02495700      -0.01155300       0.00622618       0.00475911
F        0.00010300      -0.00091000      -1.87580600       0.00037435       0.00104850      -0.67939915
F       -0.00070100      -0.00000900       1.78134900       0.00269400       0.00313469      -0.69828802
6
Properties=species:S:1:pos:R:3:forces:R:3 charge=-1.0 dipole_moment="4.336069596524745 6.835212162968546 -7.93202083363348" energy=-12.74866295641922 pbc="F F F"
C        0.65590900       1.05834600      -3.57772100       0.15664499      -0.73409423      -0.38816050
H        1.11004200       0.02967300      -3.58357600      -0.93726487       1.04666944       0.18577764
H        1.07133100       1.59784800      -4.41376800       0.14782713       0.18041124      -0.15997302
H       -0.44381900       1.12462500      -3.65480100       0.70718609      -0.44907920       0.32457300
I        1.31871600       2.07577500      -1.82923600      -0.07320497      -0.04229259       0.03884937
Cl      -4.44499800      -7.00695800       7.65105800      -0.00096365      -0.00158020      -0.00035378
6
Properties=species:S:1:pos:R:3:forces:R:3 charge=-1.0 dipole_moment="2.0479898896915443 4.100959336934494 -8.881419254637699" energy=-13.464041614292986 pbc="F F F"
C        0.28601600       1.23477400      -3.99761900       0.86231310      -2.23633850       1.82175785
H       -0.59508800       0.61285800      -3.71663300       0.43027980       0.93925234      -0.63997642
H        1.04166900       0.53083500      -4.42914500      -0.83135444       1.07211976      -0.19407254
H        0.10394000       2.15922800      -4.51091900      -0.08753733       0.05278269      -0.24099260
Cl       1.04786500       1.59855200      -2.34943600      -0.37134857       0.17476612      -0.74756887
F       -2.23114800      -4.20966100       8.50920300      -0.00201934      -0.00270377       0.00166659
6
Properties=species:S:1:pos:R:3:forces:R:3 charge=-1.0 dipole_moment="-6.129030996420416 6.1502033766150745 1.793624988117717" energy=-12.897049162659496 pbc="F F F"
C       -1.66228800       1.63533300       0.01995100       2.82396006      -3.77079098      -3.19038599
H       -2.11123500       0.67466400       0.34574300       1.29860620      -0.32483783      -1.30848746
H       -0.50559800       1.64026500       0.19686100      -2.26168855      -0.02842869      -0.45966237
H       -1.90377500       1.80576300      -1.09635000       0.43459514      -0.04556561       1.92024294
Cl      -2.47883700       2.54876400       1.08207300      -2.29248317       4.16675478       3.03892641
F        6.29272900      -6.36240800      -1.99568800      -0.00341545       0.00339437      -0.00011416
6
Properties=species:S:1:pos:R:3:forces:R:3 charge=-1.0 dipole_moment="-5.543120697112025 2.1394105445885536 -1.4067488212465984" energy=-12.300875187088606 pbc="F F F"
C       -7.25172600       2.94389400      -1.34953300       2.10688910      -5.32087268      -5.95989368
H       -6.71654500       1.83884800      -1.51727600      -1.44316957       3.34161624       1.66469481
H       -8.05421500       3.12413100      -0.77475400      -2.22589313       0.35717408       2.49752506
H       -6.70593100       3.70826100      -1.78158000       1.63115990       1.66218387       0.72761248
Cl      -8.11701900       2.79788400      -3.15576400      -0.06633704      -0.04189613       1.06829499
Br       5.79932500      -2.11138900       1.88053700      -0.00298659       0.00152929       0.00069214
6
Properties=species:S:1:pos:R:3:forces:R:3 charge=-1.0 dipole_moment="0.0005027183500356491 0.00046567594529618023 -4.47119288053338" energy=-15.367896098406066 pbc="F F F"
C        0.00051800       0.00086700      -3.98919400       0.04433971       0.00509181      -0.06591692
H        0.00154500       1.02973900      -3.63989900      -0.00182805       0.01294345      -0.00365302
H       -0.88951200      -0.51271100      -3.64013500      -0.04580678      -0.02427584       0.02031480
H        0.89167700      -0.51394200      -3.64013100       0.00370239      -0.00210779       0.00372656
F        0.00026400      -0.00090800      -5.37923900      -0.00040623       0.00836843       0.05939866
Cl      -0.00054100      -0.00000700       4.89814600       0.00000103       0.00000926      -0.01352452
6
Properties=species:S:1:pos:R:3:forces:R:3 charge=-1.0 dipole_moment="-6.94204827918649 2.046820408056198 -2.148062591981272" energy=-10.773020506469056 pbc="F F F"
C       -0.34486900      -0.64651500       0.16306000       4.98048688      -1.07115457      -0.12824766
H        0.09538600      -1.25016700      -0.77838800      -1.51415259       1.92882117       1.74945328
H       -0.09764600      -1.58791600       1.05163700      -2.60959277       2.94689479      -2.02490073
H        0.52294000       0.11408000       0.49845400      -2.32304382      -1.48939646      -1.06694053
Br      -1.84816000       0.78507700      -0.63778800       1.48833357      -2.31586170       1.47592285
F        7.35934900      -2.31939900       2.28583400      -0.02249098       0.00077390      -0.00485064
6
Properties=species:S:1:pos:R:3:forces:R:3 charge=-1.0 dipole_moment="-3.46429035958882 1.484156863607877 -1.8215179188865371" energy=-14.609467352127217 pbc="F F F"
C       -6.74333400       2.90372000      -3.57041400      -1.19129503      -0.95865286      -1.70019403
H       -7.13594900       2.65507500      -2.56372700       1.08601657       0.19788034      -0.34261855
H       -5.88640600       3.58926400      -3.72222600       0.74966483      -1.93945834       0.93251039
H       -6.95831600       2.01476200      -4.28668900       1.93325684       0.77525760       1.62286758
F       -7.64761600       3.74904700      -4.13548100      -2.57382924       1.92431505      -0.51071986
Br       3.69340600      -1.69779600       1.97755600      -0.00324165       0.00097136      -0.00147993
6
Properties=species:S:1:pos:R:3:forces:R:3 charge=-1.0 dipole_moment="-4.574287184695427 -5.586105761926126 1.3567997843414774" energy=-14.990520616140461 pbc="F F F"
C       -2.41960300      -3.03898700       0.32977800      -2.76341417      -0.67835117      -0.39324512
H       -1.54097800      -3.36488200      -0.25009100      -0.57048515      -0.41296239       0.44907148
H       -3.03578600      -2.35418900      -0.32634600       0.74644015      -0.62948581       0.65769852
H       -3.20923300      -3.86498900       0.71701600       2.31939696       1.46628173      -1.13095432
F       -2.00166200      -2.33934800       1.42215600       0.26673655       0.25449964       0.42157302
F        4.47984100       5.43023500      -1.65762700       0.00132720       0.00086595      -0.00447012
6
Properties=species:S:1:pos:R:3:forces:R:3 charge=-1.0 dipole_moment="-1.680015932781766 -5.1537203549465165 4.132694094252008" energy=-14.992114306664845 pbc="F F F"
C       -0.40589200      -2.55780900       2.12977500       0.23616973      -2.62862562      -0.73974449
H       -0.04898900      -3.70045900       2.24037000      -0.67657196       2.79762476       0.43715390
H       -0.05924600      -1.84055500       2.91310800      -0.66586640      -0.93099035      -0.47097831
H        0.01577800      -2.27717900       1.15365600      -0.37236004       0.29090286       0.35176088
F       -1.82471600      -2.62870100       2.00281500       1.47516695       0.47490490       0.41818328
F        2.10558400       5.20259500      -4.12345800       0.00362834      -0.00384997       0.00365868
6
Properties=species:S:1:pos:R:3:forces:R:3 charge=-1.0 dipole_moment="6.171941976425037 -2.04211073088218 -3.6308806372464226" energy=-11.915731308464574 pbc="F F F"
C        2.60932900      -1.92717800      -0.56248500      -9.35756923       2.71444185      -0.55555167
H        3.53233500      -1.98298000      -0.62435200       8.35119155      -1.88071891      -0.33450003
H        1.79584800      -2.63292300      -0.59785200       0.70989758      -1.12675262      -1.60828428
H        2.22274300      -1.48064700       0.28658900       0.44431134       1.32917507       2.26698811
Br       2.33403300      -0.32836800      -1.80704700      -0.15083892      -1.02978911       0.22691735
Cl      -6.17047300       1.71485200       3.97395100       0.00232839      -0.00551502       0.00311566
6
Properties=species:S:1:pos:R:3:forces:R:3 charge=-1.0 dipole_moment="-3.4902375057543966 -10.869613177889951 3.9557261223180373" energy=-11.89413193263266 pbc="F F F"
C       -1.58635500      -0.32343800       1.36781600      -2.08005707      -0.08349607      -6.95050844
H       -2.55643500      -0.88152700       1.40202500       1.18411754       0.97727741       1.08993751
H       -1.62734300       0.48591600       0.45006800      -0.04270448      -1.90507549       2.76985016
H       -0.84477800      -0.12166300       2.01395700       1.12684004       1.16402591       3.32257207
I       -0.27773900      -1.85160200       0.41959400      -0.18632323      -0.15221652      -0.23373181
F        3.25187300      11.17697600      -3.81238200      -0.00215304      -0.00043452       0.00170516
6
Properties=species:S:1:pos:R:3:forces:R:3 charge=-1.0 dipole_moment="11.817691301753813 -4.267920038639492 0.4396827607132843" energy=-11.874002929983218 pbc="F F F"
C        3.74764700      -0.18010000      -0.07545800      -1.62415211      -1.61983471      -5.96857784
H        4.31234100      -0.92213700      -0.98932800      -0.96753139       2.04906961       3.73682825
H        4.20101900       0.17232700       0.85039000       0.00231759      -0.21810773      -0.56474902
H        3.23151800       0.51797000      -0.85601500       1.85636439      -0.07083698       2.16378813
Br       1.97695000      -1.11576200       0.17798900       0.73412817      -0.14236559       0.63267295
F      -11.49155700       4.48490200      -0.53132400      -0.00156837       0.00173549      -0.00050651
6
Properties=species:S:1:pos:R:3:forces:R:3 charge=-1.0 dipole_moment="-7.780079768695917 4.548600922894659 1.9594214999594741" energy=-12.35567246365146 pbc="F F F"
C       -4.41196400       1.22094200       0.73990700       3.10580698      -2.54774128      -0.78380909
H       -4.40707500       0.13388200       1.01372700       1.01255964       0.72752455      -0.43273418
H       -4.45068300       1.25837200      -0.34173800      -1.26196180       0.58771720       0.31490874
H       -5.08092900       1.53531500       1.48141000      -0.82859205       2.04849626       0.30368124
Br      -2.42847200       2.02111800       0.77315600      -2.03009436      -0.81303687       0.59914216
Cl       7.37688100      -4.76425700      -1.97960500       0.00103153      -0.00295163      -0.00135651
6
Properties=species:S:1:pos:R:3:forces:R:3 charge=-1.0 dipole_moment="3.5414338133448164 -0.31814663076308697 5.654438415126235" energy=-12.738693669385055 pbc="F F F"
C        1.80017600      -0.06429500       2.94140700      -5.00442642      -1.54816160      -0.55080439
H        1.97216000      -1.12863400       2.99364900       0.56784823       0.19158628       0.31778220
H        1.01822100       0.25128300       3.70161500       0.56867613      -0.71488089      -1.24598857
H        2.55726800       0.60565800       3.11407600       2.20524923       1.37172221      -0.95353996
Cl       0.80651000      -0.13340600       1.16229500       1.67087934       0.69928612       2.44411039
F       -3.33993100       0.32504000      -5.24631200      -0.00891761      -0.00074202      -0.01170366
6
Properties=species:S:1:pos:R:3:forces:R:3 charge=-1.0 dipole_moment="-1.9769563160087176 1.3949412901472873 -3.105872284747404" energy=-14.54141448379552 pbc="F F F"
C       -6.30488000       3.92416600      -9.15805300      -3.75864560      -2.14752282      -7.39681290
H       -6.48130700       4.44735900     -10.15834100       1.71884070      -0.15462616       1.25805835
H       -5.76047800       3.04926800      -9.27897300       2.00520916      -0.95585601       0.02187083
H       -6.08602800       4.54434600      -8.45142300       1.18371130       3.42650995       4.59947199
F       -7.59539900       3.39622300      -9.11232300      -1.14921789      -0.16947942       1.51897598
I        2.34935200      -1.24815000       3.11033900       0.00023963       0.00105210      -0.00133903
6
Properties=species:S:1:pos:R:3:forces:R:3 charge=-1.0 dipole_moment="0.21552011925517786 2.0145517109332256 -6.402548937953389" energy=-12.412887323058387 pbc="F F F"
C       -0.73394900       2.14842000      -7.73826500       0.56620478      -3.34547238      -3.19987954
H       -0.89042700       1.56536400      -6.79916400      -0.92021383       1.13609704      -0.97033338
H       -0.49917800       1.36044500      -8.58110400      -0.80727709       0.73976814       1.90393340
H       -1.44282200       2.72674700      -8.38513000       0.34327058       0.28424473       1.99206980
Br       1.04594500       2.79214600      -7.61361400       0.81957828       1.18621453       0.27446220
I       -0.55418800      -2.19374000       6.35229200      -0.00148815      -0.00071477      -0.00067620
6
Properties=species:S:1:pos:R:3:forces:R:3 charge=-1.0 dipole_moment="2.6155033432746824 -5.826832179252091 -3.9254127349880985" energy=-11.067588343680107 pbc="F F F"
C       -0.52974900      -0.06825100      -1.92300000       5.79550247       0.81460936      -3.88970862
H       -1.60444500      -0.25332700      -1.86142800       0.57138864       0.38490189      -0.44159111
H        0.22574900      -0.47160000      -2.97949300      -3.23309922      -0.11621953       2.85413093
H        0.03227700       0.96199000      -2.22497400      -2.52519630      -1.60125334       2.02713502
I        0.55490000      -1.02190000      -0.27516500      -0.60402828       0.51401601      -0.54367060
F       -2.76497400       6.03701400       3.68751200      -0.00482905       0.00465370      -0.00597576
6
Properties=species:S:1:pos:R:3:forces:R:3 charge=-1.0 dipole_moment="5.104665098350038 10.555383516839457 0.848907139540935" energy=-12.68648754683049 pbc="F F F"
C        0.23535600       0.69656800      -1.35889000       0.18518372       0.85813403      -1.16586065
H        0.81131600      -0.25033600      -1.42494300      -0.79097115       0.68877082       0.11100173
H        0.40086300       1.33990800      -2.30067700      -0.03134946      -0.92817551       1.76378050
H       -0.84249000       0.63023300      -1.17935700       0.45832694      -0.60278593      -0.32773597
I        0.85516600       1.71507600       0.44296100       0.17791624      -0.01866930      -0.37884077
F       -5.23396000     -10.75536000      -1.15762500       0.00120945       0.00284055      -0.00191496
6
Properties=species:S:1:pos:R:3:forces:R:3 charge=-1.0 dipole_moment="-0.9870319166878878 -1.0285273476542514 -1.1255419348441311" energy=-14.520202681195569 pbc="F F F"
C       -3.09025300      -3.28375400      -3.78473500       4.70813299      -0.54396114      -1.92065072
H       -2.04794000      -2.91649900      -4.40084200      -2.29788249      -1.04781152       2.89963174
H       -2.95068200      -3.96734600      -2.85340400      -0.16721119       0.55893370      -2.30465014
H       -3.56618800      -2.43549800      -3.46224900      -1.23282966       2.12727178       0.78703376
F       -3.75041700      -3.75152700      -4.90379000      -1.00084260      -1.08513674       0.54648030
I        1.14830300       1.18463400       1.46337800      -0.00964112      -0.00948069      -0.00800179
6
Properties=species:S:1:pos:R:3:forces:R:3 charge=-1.0 dipole_moment="-1.361614767780398 2.384629147254995 1.6349374429226748" energy=-13.86438483986283 pbc="F F F"
C       -4.02964200       6.71888400       5.54043100      -2.69007345      -0.44774685       5.24603609
H       -4.45850000       7.70069300       6.00936300       1.44543008      -1.36346074      -2.20566678
H       -4.73948500       6.15894900       4.88281900       1.07538043       0.66721109       0.45092473
H       -3.01338800       6.42911200       5.66257200       1.03680823       0.99263513      -1.90810322
F       -4.13541400       6.03138400       6.99124900      -0.86589105       0.14781993      -1.58200915
I        1.38882900      -2.16763200      -2.12676600      -0.00130869       0.00362886      -0.00074305
6
Properties=species:S:1:pos:R:3:forces:R:3 charge=-1.0 dipole_moment="-1.5751065507874844 -2.6490452407662715 -3.755099695654179" energy=-12.902277430159534 pbc="F F F"
C       -1.87567200      -3.78363900      -4.62752400      -1.17352305       2.65546331      -0.78511675
H       -2.20412500      -4.79979000      -4.28806100       0.06434598       1.60129397      -0.03008294
H       -1.74010600      -2.80694400      -3.99562800      -1.18933430      -2.47055624      -0.45260572
H       -0.95689000      -3.77145900      -5.13532900       1.17886529      -0.80265322      -0.73525740
Cl      -3.01805600      -3.14842100      -6.15025700       1.11903777      -0.97715554       2.00632605
Br       1.92748900       2.50294800       4.16395800      -0.00038412      -0.00586160      -0.00436933
6
Properties=species:S:1:pos:R:3:forces:R:3 charge=-1.0 dipole_moment="1.096820312563568 -0.45451030615328314 -2.9769446075200503" energy=-13.778778645529124 pbc="F F F"
C        2.14318000      -0.65697500      -5.90949900       1.33163768      -2.80195038       0.37321519
H        1.29932600      -1.36889000      -6.22951700       0.69984353       2.24118400      -1.61302180
H        2.18050500      -1.37964400      -5.05210900       1.01985848       1.85634434       0.84833864
H        3.30158800      -0.85787200      -6.45097200      -3.97575111       1.35089524       1.21137689
F        1.75219000       0.67974200      -5.57628300       0.92498477      -2.63869560      -0.82245380
Br      -1.01172000       0.04087400       2.95360400      -0.00032036      -0.00785215       0.00296294
6
Properties=species:S:1:pos:R:3:forces:R:3 charge=-1.0 dipole_moment="-6.4456959309939235 8.96430957290042 3.2006489815138086" energy=-11.512581415796092 pbc="F F F"
C       -1.01089000       3.07195000       1.53513500      -5.28823355       2.10026285       4.16873196
H       -0.81948900       2.26822200       1.03921200       0.65582830      -4.83058538      -3.20036907
H       -0.96389100       2.95046800       2.61189800      -1.43516007      -1.14820334       0.33026902
H       -0.25544100       3.70158500       1.60533000       2.90667811       4.33110536      -1.84054439
Br      -3.12680900       3.63973200       1.07540000       3.16066970      -0.45468883       0.54040684
Cl       6.91426200      -9.10250500      -3.06507400      -0.00024168       0.00242558       0.00154729
6
Properties=species:S:1:pos:R:3:forces:R:3 charge=-1.0 dipole_moment="-6.15583911390758 -0.84191035846286 4.841765097547026" energy=-13.143350644847844 pbc="F F F"
C       -1.68340600      -0.79709900       0.86088200      -0.44532281       0.62911505       1.94825100
H       -1.62379600      -1.88024000       0.82075800      -0.96175206       0.08000759       0.55047014
H       -0.70949000      -0.45144300       0.94011400       1.94351451       0.55829144       0.67387488
H       -1.99761700      -0.31861800      -0.01092100      -1.41394589       0.35602531      -1.21907477
Cl      -2.55460700       0.09677400       2.36998600       0.88569934      -1.61906441      -1.95711050
F        6.42885200       0.64308100      -5.24500000      -0.00872118      -0.00384894       0.00465781
6
Properties=species:S:1:pos:R:3:forces:R:3 charge=-1.0 dipole_moment="-2.16751620459602 -11.576753213543622 2.0591333033915977" energy=-10.712697052177203 pbc="F F F"
C       -1.83213700      -2.16910200      -0.33151000       1.40463490      -0.94055589      -3.68044549
H       -2.08609000      -1.37405100       0.44572800       0.90713617      -0.66154746      -1.99682222
H       -2.68184700      -2.42341400      -1.12762200       0.95018878      -0.62015270       2.99549019
H       -0.98121300      -2.30059800      -1.25287900      -1.94304297       2.53636466       2.68007391
I       -0.31789200      -3.42975800       0.80581200      -1.31756963      -0.31293105       0.00196947
Cl       1.97589600      11.81705000      -2.28142500      -0.00150924      -0.00123619      -0.00047411
6
Properties=species:S:1:pos:R:3:forces:R:3 charge=-1.0 dipole_moment="7.953215968448195 -0.6314354147331979 2.564133465559198" energy=-12.773170356916216 pbc="F F F"
C        2.13558600       0.22081700       1.65899900       1.32733108       2.60623954      -4.95812394
H        2.00222900       1.30664200       1.14503000       1.17262316      -2.20863486       2.36676954
H        2.55643100      -0.08172700       2.56569300       0.82997787       0.58529008       1.28433812
H        1.16948500      -0.11706900       1.53657200      -1.81637191      -1.63567322      -0.34815773
Cl       3.31074900      -0.59002500       0.28509400      -1.51680957       0.65074934       1.64851434
F       -8.31382100       0.84418500      -2.22754300       0.00410657       0.00160591       0.00559781
6
Properties=species:S:1:pos:R:3:forces:R:3 charge=-1.0 dipole_moment="4.500863846729694 -0.07802188792553273 -0.8993260858090368" energy=-15.11715941266544 pbc="F F F"
C        8.80682100      -0.08537500      -1.66244500       3.32987452      -0.67285621      -1.45672391
H        9.61053500      -0.80360200      -2.02813500      -0.70399432       0.89560323       0.48140105
H        8.62904300       0.58211000      -2.50522200      -0.38397732       0.26790486       0.47489924
H        8.03180100      -0.69148000      -1.37864400      -2.40581380      -1.09368720       0.38433367
F        9.26598700       0.54638300      -0.53882000       0.16353914       0.60436613       0.11861425
Br      -4.64303400      -0.09977800       0.59245900       0.00094925      -0.00099245      -0.00185274
6
Properties=species:S:1:pos:R:3:forces:R:3 charge=-1.0 dipole_moment="0.7849285564293458 -2.654347596416122 -1.4013369259141621" energy=-13.253369004225991 pbc="F F F"
C        1.81477100      -5.77733700      -2.94362900       1.24682160       1.08642538      -3.25039760
H        1.59629500      -6.68899600      -2.47968600      -1.01646000      -1.21948101       0.45373701
H        2.72748300      -5.42286200      -2.51791500       0.94862915      -0.11647870      -0.19390593
H        1.85034800      -5.80048600      -4.10387900       0.51802796      -0.78530855       2.17957985
Cl       0.74460200      -4.45587800      -2.70292800      -1.69857629       1.02709871       0.80521198
I       -0.56077300       2.42125100       1.37194400       0.00073739       0.00856692       0.00594645
6
Properties=species:S:1:pos:R:3:forces:R:3 charge=-1.0 dipole_moment="-7.0686380514975715 0.2641176375645188 4.809898045926872" energy=-11.965125614136245 pbc="F F F"
C       -2.04701600      -0.78817200       2.36900700       4.45038965      -0.49723853      -4.97750440
H       -1.79273700      -1.25217700       1.38009400       0.48893181      -0.87271475       1.75796158
H       -2.32210000      -1.39786000       3.06014000      -3.25784660      -3.98443167       3.82106273
H       -1.16418800      -0.44995000       2.80078100       1.80609521       1.31580636       0.24521178
Br      -3.04818300       0.47356900       1.66955200      -3.48613950       4.04024878      -0.84943238
Cl       7.30867900      -0.51446500      -4.69937500      -0.00082378      -0.00209134       0.00277628
6
Properties=species:S:1:pos:R:3:forces:R:3 charge=-1.0 dipole_moment="0.0005789198683568422 -0.00011853569516630042 -5.236989564092" energy=-12.897510437367627 pbc="F F F"
C        0.00058700       0.00121700      -3.04902400       0.04645212       0.01427528      -0.02595632
H        0.00161300       1.03239300      -2.72182700      -0.00182394       0.01240969       0.00072351
H       -0.89143900      -0.51351200      -2.72206000      -0.04797216      -0.02618823       0.01864821
H        0.89374000      -0.51474300      -2.72205600       0.00365148      -0.00273668       0.00249191
I        0.00033200      -0.00055800      -5.18468700      -0.00030802       0.00224766       0.01802549
I       -0.00047200       0.00034200       5.68393300       0.00000309       0.00000566      -0.01472728
6
Properties=species:S:1:pos:R:3:forces:R:3 charge=-1.0 dipole_moment="-4.10718775270283 -2.6333498447009482 4.160465314262398" energy=-13.32210273295673 pbc="F F F"
C       -2.18491800      -2.38052000       2.60293000       2.83455455       0.47325528      -1.58584164
H       -2.43064700      -3.30423800       3.07238700      -0.70813483      -0.54884469       0.16788996
H       -1.21755900      -2.02463100       3.07643600      -0.78988717      -0.83104642      -1.16763676
H       -2.17436300      -2.41964800       1.46555100       0.74660573      -0.67290660       1.67308997
Cl      -3.23808900      -1.07571700       2.86494600      -2.08400165       1.58452832       0.91140369
Cl       4.35174000       2.37169600      -4.23153100       0.00040829      -0.00435545       0.00128864
6
Properties=species:S:1:pos:R:3:forces:R:3 charge=-1.0 dipole_moment="6.205862235622179 -5.4197218633806425 6.978450379501176" energy=-12.295979445212303 pbc="F F F"
C       -0.12457300      -1.71373800       1.24065500      -2.00177108       3.61185103       3.40596273
H       -0.68695400      -1.57311100       2.28558300       2.04244234      -1.30590762      -1.44720826
H       -0.17612300      -2.72834600       0.88056600       0.24011688       0.21797506      -0.38371249
H       -0.82052500      -0.87557900       0.87673200       1.65316855      -1.51749297      -1.22606663
Br       1.77580800      -0.92095800       1.47426700      -1.93235335      -1.00288920      -0.35126054
F       -6.63580300       5.29922000      -7.00957200      -0.00102021      -0.00269297       0.00247906
6
Properties=species:S:1:pos:R:3:forces:R:3 charge=-1.0 dipole_moment="0.00018203696043396137 0.000542935818038501 1.0000369758147047" energy=-13.023740431326905 pbc="F F F"
C        0.00058700       0.00121700       0.23660400       0.05172289       0.01454987       0.89223200
H        0.00161300       1.05727700       0.04807800      -0.00212527       0.00233508       0.00157609
H       -0.91298900      -0.52595500       0.04784100      -0.04148372      -0.02210840      -0.00666533
H        0.91529000      -0.52718700       0.04784500      -0.00865999       0.00437448       0.00487841
I        0.00033200      -0.00055800      -2.66617500       0.00000771       0.00021906      -0.43940568
I       -0.00047200       0.00034200       2.63667700       0.00054147       0.00062735      -0.45202568
6
Properties=species:S:1:pos:R:3:forces:R:3 charge=-1.0 dipole_moment="7.07525276662962 -0.3451240849576316 -4.022059014839425" energy=-12.458291449246188 pbc="F F F"
C        0.54448200      -0.93588500       0.00529500      -1.99041092       4.57248826      -0.86981506
H        0.58598100      -0.35568900       1.03565100      -0.89345225      -1.45555457      -2.35716030
H        1.08445300      -1.80876400       0.05684500       0.54725318      -2.20640109       0.02530891
H       -0.43756800      -0.87118600      -0.73504900       2.47008779      -0.60330889       2.89741339
Br       1.77189500       0.22673900      -1.11689600      -0.14267412      -0.30168607       0.30846350
F       -7.39067500       0.07945500       4.30024000       0.01036515      -0.00471438      -0.00449532
6
Properties=species:S:1:pos:R:3:forces:R:3 charge=-1.0 dipole_moment="6.3854014796222796 -7.187057327677548 -3.9021792095582932" energy=-12.857006625183434 pbc="F F F"
C        1.27822700      -3.31645200      -1.78064000      -0.95315224       1.00276425      -3.74461766
H        0.51678200      -2.70511300      -1.29718100       0.09183004      -0.15367176      -0.24942017
H        1.10457200      -4.35771000      -1.60582100       0.54492633      -0.50495133       0.57844580
H        1.25838400      -3.18636500      -2.97043400      -0.55467698      -0.24665469       2.76503037
Br       2.96798500      -2.56751700      -1.38190000       0.87224321      -0.09632536       0.65161169
Cl      -6.73109300       7.05946900       3.81904600      -0.00092046      -0.00159203      -0.00086749
6
Properties=species:S:1:pos:R:3:forces:R:3 charge=-1.0 dipole_moment="0.00022860455496357939 0.00046355923645392485 -1.2027504773970272" energy=-15.440646321920894 pbc="F F F"
C        0.00079200       0.00087100      -4.31011800       0.04453048       0.00517409       0.00247700
H        0.00181900       1.02878800      -3.95982600      -0.00183474       0.01316559      -0.00355789
H       -0.88841100      -0.51223000      -3.96006200      -0.04605360      -0.02445068       0.02042022
H        0.89112400      -0.51346100      -3.96005800       0.00378878      -0.00219778       0.00372090
F        0.00053800      -0.00090400      -5.70355900      -0.00043400       0.00830158       0.02454221
I       -0.00026700      -0.00000400       1.68061700       0.00000514       0.00003291      -0.04746771
6
Properties=species:S:1:pos:R:3:forces:R:3 charge=-1.0 dipole_moment="0.000269880377387559 0.0005820949316202253 0.6750449086557639" energy=-13.355622939349507 pbc="F F F"
C        0.00055500       0.00116800       0.16158300       0.05324189       0.01481264       0.89156608
H        0.00158100       1.06207200       0.02162300      -0.00223429       0.00275931       0.00058570
H       -0.91721600      -0.52842700       0.02138900      -0.04322436      -0.02310496      -0.00559061
H        0.91945400      -0.52965700       0.02139300      -0.00850007       0.00416313       0.00361600
Br       0.00030000      -0.00060700      -2.47085500       0.00003188       0.00051833      -0.43729480
Br      -0.00050400       0.00029300       2.44131500       0.00068854       0.00085206      -0.45190741
6
Properties=species:S:1:pos:R:3:forces:R:3 charge=-1.0 dipole_moment="0.00022860455496357939 0.00046355923645392485 -1.5499081903748555" energy=-15.39762026724696 pbc="F F F"
C        0.00079200       0.00087100      -5.24206400       0.04443175       0.00513244      -0.04298525
H        0.00181900       1.02939400      -4.89253900      -0.00183165       0.01301184      -0.00361806
H       -0.88893600      -0.51253300      -4.89277500      -0.04589882      -0.02434218       0.02034823
H        0.89164900      -0.51376400      -4.89277100       0.00371627      -0.00213299       0.00372039
F        0.00053800      -0.00090400      -6.63369600      -0.00041755       0.00834374       0.04765540
I       -0.00026700      -0.00000400       1.99686300       0.00000206       0.00001646      -0.02479264
6
Properties=species:S:1:pos:R:3:forces:R:3 charge=-1.0 dipole_moment="4.550326040601097 -0.6991753894574751 -0.22905435559255866" energy=-15.175005799356617 pbc="F F F"
C        4.25233200      -0.78146000      -0.45801200      -3.19854153      -0.57875125      -0.89583823
H        4.58559100      -1.81594200      -0.49793800       0.40667502       0.16276216      -0.41946009
H        4.44309800      -0.15619700      -1.33912800       0.63436473      -0.34629060       0.29431883
H        3.10966700      -0.83121000      -0.41630000       1.38522204       0.00234485       0.02796281
F        4.68132300      -0.22046800       0.68428900       0.76841538       0.76399153       0.99999568
Cl      -4.69319100       0.55743100      -0.06806800       0.00485270      -0.00346533      -0.00539932
6
Properties=species:S:1:pos:R:3:forces:R:3 charge=-1.0 dipole_moment="9.910854141208068 0.033634503503437746 -2.136664114865727" energy=-13.106017823860984 pbc="F F F"
C        0.81302600      -0.58541600      -1.00964200       0.41913818      -0.08645438       0.93394198
H        0.18671700       0.26985300      -1.04700400      -0.72608473       0.40306107      -0.34899900
H        0.37994600      -1.34799300      -0.36732300       0.33978365       0.24071595       0.37612620
H        0.98474500      -1.04581900      -1.95757800       0.46785031       0.16139381      -0.62018355
Br       2.46464300       0.21244800      -0.23917700      -0.50551029      -0.71704679      -0.33765889
F      -10.29911800      -0.19991600       1.97788400       0.00503114      -0.00147736      -0.00321594
6
Properties=species:S:1:pos:R:3:forces:R:3 charge=-1.0 dipole_moment="4.945608187462022 1.4784491582147357 4.199786356070555" energy=-13.067954544815038 pbc="F F F"
C        5.11934500       1.36595200       4.65739700      -0.07651295      -0.04865299       1.62998285
H        4.47139600       2.21314300       4.62001200      -0.45166264       0.25848228      -0.60944560
H        4.64220000       0.60180900       5.28081500       0.57312825       0.37311338       0.41375892
H        5.34048500       0.87395800       3.75353900       0.42220191       0.07277405      -1.26217521
Br       6.75657300       2.15792700       5.43726500      -0.46984548      -0.65612398      -0.17484840
I       -5.31415500      -1.64928400      -4.37552900       0.00252688       0.00041703       0.00275108
6
Properties=species:S:1:pos:R:3:forces:R:3 charge=-1.0 dipole_moment="-0.49553212351619214 2.553131871351576 -6.158680795528308" energy=-10.438477452278386 pbc="F F F"
C        0.13961600       2.20501600      -1.99117900       4.86870713      -0.85766146       1.45231344
H        0.84397200       2.84874400      -2.52355800       0.41442278      -1.79987982      -1.78573978
H        0.44045700       2.59324600      -1.09477800      -0.67838716       0.33416682       3.19549889
H       -0.78510400       2.18860000      -2.25867800      -5.52354864       0.16521036      -1.47578659
Br      -0.17713300      -0.07357900      -1.05413900       0.91783556       2.15645175      -1.40066152
F        0.54029400      -2.03171400       6.07988200       0.00070500       0.00137143       0.01500907
6
Properties=species:S:1:pos:R:3:forces:R:3 charge=-1.0 dipole_moment="-6.569178903901785 -1.3342817065003543 0.6965268575186031" energy=-12.671730276450308 pbc="F F F"
C       -6.12671500      -1.88174400      -0.63574000       1.68232589       2.18063092      -1.83782416
H       -5.42604900      -2.67201600      -0.91597600      -0.19610525       0.19731470       0.31572378
H       -6.09094700      -1.05316600      -1.45513600      -0.35424919      -1.75607799       1.47039087
H       -7.09500400      -2.23519600      -0.43720800      -1.14035427      -0.38301624       0.09247796
I       -5.44482600      -0.85231200       1.11838100       0.00712916      -0.23806926      -0.03802868
I        6.48958600       1.17780000      -0.99342300       0.00178486      -0.00053068      -0.00223377
6
Properties=species:S:1:pos:R:3:forces:R:3 charge=-1.0 dipole_moment="4.230115618716811 2.804771510290999 6.905408049127049" energy=-14.311795252266002 pbc="F F F"
C        2.22949800       0.99110000       3.26648500      -0.56120399      -1.33989657      -0.85553258
H        1.20454300       0.73998400       2.51989200       3.89730778      -0.05552503       1.78533817
H        2.31624200       0.37264300       4.18455500      -0.56256616      -0.56671746      -0.97677656
H        3.34533600       1.07659400       2.92653700      -2.38955466      -0.46431658      -0.60899977
F        1.90057300       2.19088400       3.75900700      -0.38618487       2.42899024       0.65471759
F       -4.14980700      -3.09486400      -7.00677300       0.00169281      -0.00061861       0.00186971
6
Properties=species:S:1:pos:R:3:forces:R:3 charge=-1.0 dipole_moment="-7.797738412212432 0.5237478523834561 -0.43138526205164335" energy=-11.99382463912419 pbc="F F F"
C       -1.57653400       0.51867600      -0.08996800      -3.08208444      -2.70914538      -4.78847174
H       -1.72451100      -0.32855100      -0.90351000       2.55102304       1.25860086       2.02131095
H       -1.14852700       0.29520800       0.84957800       0.28853539       0.06445088       0.62484651
H       -1.42435400       1.38421400      -0.73422100       0.08855394       0.35146366       1.16219425
Br      -3.63713100       0.09399500      -0.16117900       0.16427756       1.03232731       0.98028663
Cl       8.29742200      -0.45604400       0.40995400      -0.01064334       0.00235307      -0.00037692
6
Properties=species:S:1:pos:R:3:forces:R:3 charge=-1.0 dipole_moment="-5.015557477040404 0.39910545220724897 -1.2220553912156065" energy=-12.540781314429072 pbc="F F F"
C       -3.30313300       0.60181500      -0.09678900      -2.40021908       4.22629536       7.60988795
H       -2.33643000       0.75565700       0.20681200       2.62060686       0.58680960       0.44624687
H       -3.71247400       0.23133300       0.92773900       0.04793102      -1.15478742      -2.22429339
H       -3.80114200       1.62671800       0.06882300       0.65742701      -1.08760397      -1.43607024
Cl      -3.34054500      -0.09817400      -1.52506400      -0.91935560      -2.57491784      -4.40187241
Cl       5.08577100      -0.26797900       1.48843900      -0.00680931       0.00364788       0.00404743
6
Properties=species:S:1:pos:R:3:forces:R:3 charge=-1.0 dipole_moment="1.1056586303344054 -1.4287625932060541 -3.1565701074054724" energy=-14.07772752563154 pbc="F F F"
C        3.07633800      -4.02613700      -9.35505300       1.12078200      -6.73624914      -4.59215566
H        2.42980500      -4.88389000      -9.11885300       0.34395141       0.45195523       1.07938004
H        4.00617400      -3.97487400      -8.90522400       1.17147234       1.57509597       2.30999752
H        3.48406600      -4.39814600     -10.36304400       0.21948018      -0.79926604       1.06680837
F        2.37497000      -3.08046900      -9.84190400      -2.85695863       5.50998042       0.13491196
I       -0.93873200       1.22901800       3.26593500       0.00074305      -0.00087983       0.00083664
6
Properties=species:S:1:pos:R:3:forces:R:3 charge=-1.0 dipole_moment="0.0006667632853104399 0.00017462847948606757 -3.6908046645706722" energy=-13.819071258008567 pbc="F F F"
C        0.00046900       0.00103600      -1.62405200       0.04588802       0.01142701       0.04989740
H        0.00149600       1.02750400      -1.28048200      -0.00183474       0.01441515      -0.00037384
H       -0.88747800      -0.51133900      -1.28071500      -0.04868024      -0.02644585       0.02002735
H        0.88954400      -0.51257000      -1.28071100       0.00506662      -0.00341751       0.00337432
Cl       0.00021500      -0.00073900      -3.41380800      -0.00045200       0.00398881      -0.01507078
Cl      -0.00059000       0.00016200       4.21299700       0.00001337       0.00003085      -0.05931484
6
Properties=species:S:1:pos:R:3:forces:R:3 charge=-1.0 dipole_moment="-1.9524628196405596 -4.959671071832756 5.75755917814881" energy=-13.192537480420064 pbc="F F F"
C       -1.71209000      -3.11317800       3.05720500      -2.65037253       1.65702109       0.09183416
H       -2.19000700      -2.02749000       3.08825600       1.52885776      -2.14675817      -0.49149417
H       -2.57648500      -3.75555400       3.33570200       0.42978564       0.14798345      -1.69512021
H       -1.07677400      -3.35661200       2.18634500      -1.02524752       0.21055125       0.32307353
Cl      -0.79758300      -3.38622700       4.48123000       1.71965780       0.13327983       1.77135343
Cl       1.74557200       5.02262200      -6.06673200      -0.00223532      -0.00234536       0.00115854
6
Properties=species:S:1:pos:R:3:forces:R:3 charge=-1.0 dipole_moment="0.574715026241702 -11.024785928052427 2.8433305369159436" energy=-11.604293225119948 pbc="F F F"
C        1.35254100      -3.96722200      -0.23783200      -4.43706002      -2.84107024       3.02577110
H        1.59487000      -4.71015400       0.59914400      -0.32921744       0.85139671      -1.69453606
H        2.14017900      -3.88974900      -0.88953500       1.99701094       1.95849273      -1.15097704
H        0.42057500      -4.25634300      -0.78944000       1.59797570      -0.70521508       0.12980164
I       -0.10019800      -2.77714200       1.01966200       1.17098228       0.73458531      -0.30864656
Cl      -0.40943300      10.81459600      -3.03148500       0.00039852       0.00183114      -0.00144033
6
Properties=species:S:1:pos:R:3:forces:R:3 charge=-1.0 dipole_moment="-4.292735803928883 -2.130889733144054 -2.5824175965386003" energy=-11.65366777759925 pbc="F F F"
C       -3.40657000      -1.72486900      -3.83068300      -6.21464477      -0.15523911      -0.15367845
H       -2.58218900      -2.11619200      -4.17642700       5.66942328      -1.13528766      -0.52763360
H       -3.65262000      -0.77335000      -4.45515600       0.00341083      -1.70531567       1.82180568
H       -3.99071400      -2.70058800      -4.17381800      -0.08095067       2.57122522       0.58860835
I       -3.80569400      -1.81487100      -1.62280600       0.61795749       0.42299690      -1.72875385
I        4.38427800       2.11561300       2.29807900       0.00463519       0.00158637      -0.00065717
6
Properties=species:S:1:pos:R:3:forces:R:3 charge=-1.0 dipole_moment="1.780042596654175 -5.443315229313632 5.348922186024885" energy=-12.761326993512176 pbc="F F F"
C       -0.00206500      -2.30885800       0.04231400       1.16601337       1.28130319      -0.61644517
H        0.47004400      -3.25611000       0.00536900       0.52767525      -0.73782542       0.02840504
H        0.21613900      -1.71522000      -0.86875400      -0.04933227      -0.26694532       0.86704496
H       -1.02461000      -2.41474000       0.18590600      -1.79258200      -0.22370913      -0.00220395
I        0.61871300      -1.29910300       1.83202300       0.14903863      -0.04523908      -0.27479130
Cl      -1.90829300       5.29951000      -5.68668300      -0.00039749      -0.00730502      -0.00148507
6
Properties=species:S:1:pos:R:3:forces:R:3 charge=-1.0 dipole_moment="-0.19822766636837266 1.2944256665323175 3.3093483306901486" energy=-12.0402795985983 pbc="F F F"
C       -1.25412400       1.16051300       4.34168900       1.50458809      -2.11585711      -0.35149811
H       -1.92229700       1.20787700       3.43766200       0.88276108      -0.06086470       1.40109860
H       -1.50561500       1.60139600       5.25146000      -0.72111427       2.76124982       0.62622513
H       -1.21049100       0.16595100       4.95389800       0.77778190       0.61456569      -2.63891363
Br       0.67491600       1.95039600       3.71222300      -2.43162665      -1.19415769       0.96507701
I       -0.21620600      -1.47551200      -3.20039500      -0.01305349      -0.00497663      -0.00171184
6
Properties=species:S:1:pos:R:3:forces:R:3 charge=-1.0 dipole_moment="-3.492569589721352e-05 0.0006223123996230772 2.286243991089755" energy=-13.191162302416032 pbc="F F F"
C        0.00058700       0.00121700       0.83954300       0.04509355       0.01179828      -0.30146238
H        0.00161300       1.02923200       0.50503000      -0.00182137      -0.00264824       0.00734204
H       -0.88870100      -0.51193100       0.50479000      -0.03171353      -0.01643398      -0.00691473
H        0.89100200      -0.51316300       0.50479400      -0.01211555       0.00676252       0.01151083
I        0.00033200      -0.00055800      -3.10252200       0.00004319       0.00008947       0.14640737
I       -0.00047200       0.00034200       2.97890100       0.00051628       0.00044480       0.14405944
6
Properties=species:S:1:pos:R:3:forces:R:3 charge=-1.0 dipole_moment="-5.463622404769019 5.328237707218366 0.5049514778642284" energy=-12.794539744263792 pbc="F F F"
C       -1.87544200       0.50664900      -1.07434100      -1.40631434      -0.62566669       3.72206188
H       -1.58995400       0.82888600      -2.03431700       1.15636145      -0.12883028      -0.83702784
H       -2.90037700       0.86732800      -0.90084600       0.42170260      -0.07306973      -0.04160817
H       -1.85237600      -0.54401900      -0.68581300       0.21365149       0.83872631      -1.59034981
Br      -0.84614500       1.30378800       0.50151000      -0.38174817      -0.00604209      -1.24703038
F        5.24560200      -5.53607600      -0.83176000      -0.00302619      -0.00460022      -0.00552222
6
Properties=species:S:1:pos:R:3:forces:R:3 charge=-1.0 dipole_moment="-1.0703111802003722 -0.7839786833363834 3.092108385500638" energy=-13.905151342238598 pbc="F F F"
C       -3.25572800      -1.89795700       9.46419800      -5.52564769      -2.32355958       4.79139868
H       -4.27478800      -1.70054700       9.10929800       1.42054746      -0.20744176      -2.86646862
H       -3.35625000      -2.98404800       9.86424100       0.18006054       1.52938432      -0.48485301
H       -2.26077400      -1.78284100       9.38530600       3.09080202       1.08820870      -2.41675591
F       -3.57566600      -1.03517000      10.57850400       0.83434155      -0.08405760       0.97544473
I        1.16240000       0.51267400      -3.40284100      -0.00065152      -0.00182343       0.00211088
6
Properties=species:S:1:pos:R:3:forces:R:3 charge=-1.0 dipole_moment="0.0001402319607994179 0.0006313084122026625 1.299144339718915" energy=-13.151123590265938 pbc="F F F"
C        0.00064800       0.00111300      -0.33246800       0.05224379       0.01460490       0.72850568
H        0.00167500       1.05810600      -0.50992600      -0.00215613       0.00258447       0.00112152
H       -0.91373400      -0.52652500      -0.51016100      -0.04208639      -0.02246682      -0.00668590
H        0.91615900      -0.52775600      -0.51015700      -0.00855149       0.00426495       0.00436830
Br       0.00039400      -0.00066200      -3.04500600       0.00002263       0.00036561      -0.35690154
I       -0.00041100       0.00023900       2.07736400       0.00052862       0.00064895      -0.36959662
6
Properties=species:S:1:pos:R:3:forces:R:3 charge=-1.0 dipole_moment="-7.521741804625176 -1.6950625575869382 -1.0090520387738702" energy=-11.722131879886852 pbc="F F F"
C       -5.82729900      -1.72467200      -2.21782400      -3.80259141       2.23827351      -0.61728901
H       -5.16501600      -0.94983100      -1.91263000       2.24220010      -0.63421149      -1.43773786
H       -6.66139000      -1.07867400      -2.68281900       1.45799352      -1.41096907      -0.23100541
H       -5.80962100      -2.71918100      -2.70546500       0.84488719       0.78883765       0.99644345
I       -6.66777500      -1.39478700      -0.27019500      -0.74242461      -0.98172542       1.29210028
I        7.66022400       1.67961200       0.65902300      -0.00032807      -0.00020260      -0.00182703
6
Properties=species:S:1:pos:R:3:forces:R:3 charge=-1.0 dipole_moment="4.896471437575117 -5.913946919186742 2.351811693364668" energy=-12.274649575289281 pbc="F F F"
C        2.80901300      -3.19074200       1.37550700      -1.99230325      -0.18052539       0.17878836
H        2.99029100      -4.01509600       0.76675400       1.17748923      -0.54671633      -2.14905982
H        1.96507200      -3.63375300       1.83898400       0.49609542      -0.78915955       2.65968198
H        3.64037000      -2.76013900       1.87137200       0.28644045       0.14290552       0.67815628
Br       1.55951900      -1.90393300       0.71347800       0.03645002       1.36938302      -1.36580661
Cl      -4.70782100       5.65829900      -2.21775800      -0.00344116       0.00362114      -0.00102021
6
Properties=species:S:1:pos:R:3:forces:R:3 charge=-1.0 dipole_moment="-0.8987561619532596 3.3710959026820007 1.1714644623540715" energy=-13.129430622530183 pbc="F F F"
C       -1.66246900       6.89130300       2.17752900      -6.59294561      -2.01201590       0.94554228
H       -1.94576500       5.87285000       2.43487700       1.28929160      -0.47726517      -0.84072509
H       -0.69739800       7.11049400       2.10134900       3.77268177       1.04460947      -0.31072350
H       -2.37657100       7.11641100       1.36390400       1.10638588       0.47236517       0.17054129
Cl      -2.47850700       7.50948500       3.68466400       0.42471285       0.96654614       0.03610292
I        1.07790900      -3.56809100      -1.53970900      -0.00077802       0.00598039       0.00009770
6
Properties=species:S:1:pos:R:3:forces:R:3 charge=-1.0 dipole_moment="-3.200007089557394 0.6193426571173929 0.8002477074979581" energy=-14.112120925969283 pbc="F F F"
C       -9.48995700       1.61802400       2.85276500       1.20014734      -0.54813661      -3.95651720
H       -9.75132900       2.53771500       2.32285200      -2.12443637       1.06359450       2.14190033
H      -10.04581200       0.84603400       2.31810600       0.43402024       0.00483882      -0.15542783
H       -8.49023600       1.83712100       2.28694800      -0.14924381      -2.10180706       2.28840231
F       -9.60094000       1.26815900       4.17323000       0.64131545       1.58002374      -0.31649871
I        3.23840700      -0.49702700      -1.16233100      -0.00174372       0.00118168      -0.00137965
6
Properties=species:S:1:pos:R:3:forces:R:3 charge=-1.0 dipole_moment="-0.0426151699439167 -2.0479232133630134 1.3746198269072145" energy=-14.088843979990788 pbc="F F F"
C       -0.71024100      -6.31709600       4.07261400      -2.10943552       0.17449153       2.06075734
H       -0.45431700      -5.33000900       3.85181000      -1.80258514       2.16249178      -1.40780096
H       -0.02609700      -6.86308500       3.60856400       1.94643888      -3.22277264      -2.83164920
H       -0.40181100      -6.33566000       5.01886900       2.00049376      -0.03271472       4.08051380
F       -1.96594700      -6.90489600       4.31381600      -0.03748669       0.92368893      -1.90581391
I        0.43089000       2.23727200      -1.42904300       0.00345351      -0.00513809       0.00432305
6
Properties=species:S:1:pos:R:3:forces:R:3 charge=-1.0 dipole_moment="0.46347509727744524 4.359259729423284 -2.020792297777405" energy=-12.948856093637422 pbc="F F F"
C        0.74109100       8.99763600      -4.03888700       1.96393164      -3.34999443      -0.29160066
H        0.14267400       8.12042800      -4.55345600       0.27688418       2.78528449       1.55297368
H        0.74400700      10.03501400      -4.31481300      -0.90455735       0.06597811      -0.44711693
H        0.93906600       8.89562200      -2.92111300      -0.53368701      -0.16392738      -1.71101683
Cl       2.37677000       8.39340300      -4.90816100      -0.79988877       0.66104096       0.89556621
I       -0.88070500      -4.22122100       2.25398900      -0.00180646       0.00120122       0.00068340
6
Properties=species:S:1:pos:R:3:forces:R:3 charge=-1.0 dipole_moment="0.1722831660888486 8.147144599157945 -7.8751707967253965" energy=-12.06574602068328 pbc="F F F"
C        1.62801900       1.50989900      -0.47159600       0.67253379       3.72224546      -0.39946256
H        2.51630400       1.71317200      -1.18648900      -2.04623832      -0.52075796       0.81899052
H        2.02289600       1.14039000       0.43445900      -0.09479350      -2.24319615       0.64414418
H        1.30307500       2.47547900       0.01372800       0.76484103      -0.28426376      -1.15295731
I       -0.30783100       1.09516500      -1.29809900       0.70109463      -0.67503856       0.08784997
F        0.07829600      -8.04802000       8.04079300       0.00189490       0.00077699       0.00132618
6
Properties=species:S:1:pos:R:3:forces:R:3 charge=-1.0 dipole_moment="3.356964754451104 -0.1446225441154661 5.338905919783333" energy=-12.792356280847919 pbc="F F F"
C        1.40399700      -0.81715100       1.71059200      -1.47422233      -1.52293034       0.25391548
H        1.68195900      -1.89378500       1.74638200       0.27440872       0.95912542       0.05191212
H        1.72764900      -0.35829900       0.78525800       0.15081835       0.23365570       0.21525174
H        0.28917100      -0.84391800       1.78264400       0.98339664       0.43284268      -0.17581462
I        2.09441700       0.17272500       3.47509400       0.05815784      -0.09858022      -0.35443174
Br      -3.51791000      -0.03301500      -5.67879500       0.00761047      -0.00391990       0.00974808
6
Properties=species:S:1:pos:R:3:forces:R:3 charge=-1.0 dipole_moment="0.6947435303190029 2.537766681865644 -1.78094854803866" energy=-12.966048221532045 pbc="F F F"
C        1.60966500       5.12476800      -3.43275900       0.48843045       4.20671075       1.48171401
H        0.97331100       4.38755000      -3.07088100      -0.29979785      -1.04691626       2.25911436
H        2.13043500       6.04565600      -2.80651000      -1.92169664      -2.85562988      -0.91627336
H        2.39353500       4.67178800      -3.90510000       1.89359294      -1.07348553      -1.73092026
Cl       0.44598100       5.83935900      -4.54313300      -0.16687541       0.76448364      -1.09109810
I       -0.42899900      -2.73816400       2.03042100       0.00486350       0.00577676      -0.00349927
6
Properties=species:S:1:pos:R:3:forces:R:3 charge=-1.0 dipole_moment="-3.022172325352521 -3.0128122388520677 -4.976424293141997" energy=-12.183167844960847 pbc="F F F"
C       -0.44710400      -1.88469500      -1.78688600       6.69306489       1.97781766      -0.06902435
H       -1.08229300      -2.62180700      -1.53909700      -2.52753087      -2.13811104       0.68931075
H        0.65961100      -2.21733000      -1.50171600      -2.46422002       0.08917152      -0.30095022
H       -0.22321000      -1.67462900      -2.83566600      -1.18937390       0.32836744       0.13265042
I       -0.46676900      -0.13968100      -0.51479000      -0.51210414      -0.25850336      -0.45224268
F        3.11858500       2.80277900       4.87574200      -0.00081967       0.00384071       0.00005914
6
Properties=species:S:1:pos:R:3:forces:R:3 charge=-1.0 dipole_moment="-9.675610528960755 1.1234733811280369 -0.8370477490749888" energy=-12.011492294525729 pbc="F F F"
C        0.23819200       0.43417700       0.41244700       0.83596032      -1.76562038      -4.77064525
H        0.67668200       0.86107600      -0.56870900      -0.50592064      -0.19676397       1.93155168
H        0.37539400      -0.67866700       0.18327400       1.32453166       1.68609204       1.93647843
H        0.53236900       1.02465300       1.25930900      -0.38427042      -0.48641933       0.58974220
I       -1.76945100       0.11293300      -0.21733200      -1.26237267       0.75994462       0.31268011
F       10.08525700      -1.08862100       0.90778000      -0.00847076       0.00253254      -0.00003600
6
Properties=species:S:1:pos:R:3:forces:R:3 charge=-1.0 dipole_moment="-3.1171638680664153 -4.090105912345829 -1.9195781602444908" energy=-12.689324856188016 pbc="F F F"
C       -2.33030400      -3.20605300      -2.32294000      -0.19368224       0.81102524      -1.30070885
H       -1.52038100      -3.33397600      -3.01407500       0.72475907      -0.48767043       0.06764881
H       -2.97898400      -2.55330500      -2.91918900      -0.41741400      -0.35099109       0.64092876
H       -2.77074400      -4.15131500      -2.05448900      -0.17167514      -0.00782078       0.22971574
I       -1.62132500      -2.08154100      -0.69874100       0.05679979       0.03336212       0.36162363
Br       3.06234700       3.98847400       1.68453400       0.00150564       0.00231348       0.00109375
6
Properties=species:S:1:pos:R:3:forces:R:3 charge=-1.0 dipole_moment="8.31319194099751 7.369358347539579 -4.3784704496983835" energy=-11.59220591281056 pbc="F F F"
C        1.61783800       2.99180700      -0.05701800      -3.37967576       4.55946665       4.01574874
H        2.02521700       3.58621800       0.98686400       0.26662033      -2.50420222      -2.95266538
H        0.55534600       2.69364400       0.39759200       2.33200565      -0.08971917      -1.52546082
H        1.39347800       3.92721900      -0.64642700      -0.00478174      -1.02972998       0.52772256
I        2.45901100       1.77693000      -1.45730500       0.78610662      -0.93645909      -0.06551171
Cl      -8.47109700      -7.19618800       4.52007400      -0.00041138       0.00103873       0.00054456
6
Properties=species:S:1:pos:R:3:forces:R:3 charge=-1.0 dipole_moment="0.3725926156035794 0.2140161976227554 -4.599562275803588" energy=-12.763122506057798 pbc="F F F"
C       -0.25841200      -0.09864400      -6.32475500       3.08258837      -3.90312001       1.45541162
H       -0.32594000       0.34491700      -7.25099800      -0.07136354       1.91478449      -1.50836349
H       -1.15937200      -0.27480200      -5.81342100      -1.09380033       0.06896779       0.42909555
H        0.24102600      -1.13273800      -6.56584800      -1.17303248       1.83485711       0.60554318
Br       1.02492400       0.62768900      -4.97206800      -0.74049114       0.08634485      -0.98578879
I       -0.62410500      -0.38329500       4.36983400      -0.00354812      -0.00237416       0.00497406
6
Properties=species:S:1:pos:R:3:forces:R:3 charge=-1.0 dipole_moment="4.03991345392385 -0.7182416443540903 -9.464090989417441" energy=-12.309163396521386 pbc="F F F"
C       -0.47838000      -0.66391500      -1.59460600      -0.10042061      -3.19050015      -2.99420309
H       -1.02549800      -1.02274100      -2.56695000       1.43622965       0.79506538       1.24654238
H       -1.21354100       0.09056300      -1.27063200       0.96800756      -0.70093163       1.30283412
H       -0.06385000      -1.70449000      -1.22157400      -2.06348476       2.48794873       0.68868289
Br       1.28277500       0.04641900      -2.03516800      -0.23963300       0.60926048      -0.24039971
F       -4.41377300       0.55505600       9.53974300      -0.00156580      -0.00136320      -0.00331415
6
Properties=species:S:1:pos:R:3:forces:R:3 charge=-1.0 dipole_moment="-1.9662902201525927 4.138679088503484 -0.6210106236850902" energy=-14.423241688734318 pbc="F F F"
C       -3.82538900       8.10069600      -0.94381500       1.41132800       4.72865862      -0.47067492
H       -4.47344300       8.61378600      -1.76042200       0.13234549       0.17546598       2.36223103
H       -4.11204100       7.12522000      -1.12831900       0.50616592      -2.36014072       0.47388417
H       -2.79051500       8.54883100      -1.28165400      -1.70964386      -1.89976873       1.05122183
F       -3.96576600       8.46621900       0.49881100      -0.33971629      -0.64423263      -3.41223673
Br       2.00057800      -4.25965600       0.15268500      -0.00061655       0.00071425      -0.00255311
6
Properties=species:S:1:pos:R:3:forces:R:3 charge=-1.0 dipole_moment="2.674551582315449 8.060305560549999 -2.566371885159883" energy=-12.788253372758454 pbc="F F F"
C        0.29433400       3.15922100      -0.34629800      -1.26730301       2.29520340       5.29848763
H        0.12647200       4.21561800      -0.62217800      -0.50152353      -0.65044287       0.16641724
H        0.83859700       3.22086500       0.76860700      -2.24129044      -0.32313833      -2.57678909
H       -0.57363100       2.49408700      -0.43462200      -0.16614933       0.86496082       0.88758653
Cl       1.40437400       2.50978500      -1.31452000       4.17938970      -2.18874532      -3.77736992
F       -2.89242300      -7.95024800       2.74587000      -0.00182086       0.00147787       0.00121613
6
Properties=species:S:1:pos:R:3:forces:R:3 charge=-1.0 dipole_moment="2.750753100636642 -3.9286592371749074 3.599394593217874" energy=-13.222374100123716 pbc="F F F"
C        1.80207000      -2.17721000       3.14855000       0.89719680       2.01498913      -1.94500009
H        2.85813100      -1.83815200       3.49457500      -2.11902779      -0.06671088      -1.08557589
H        1.44187300      -2.81734300       3.87230300      -0.83985142      -1.58613217       1.29775825
H        0.99218100      -1.45649200       2.84631600       1.47629824       0.09128600       1.36579067
Cl       1.84486500      -2.99828700       1.53383300       0.58737473      -0.45780346       0.36114798
Cl      -2.79219400       4.12624300      -3.24586200      -0.00184605       0.00395898       0.00428037
6
Properties=species:S:1:pos:R:3:forces:R:3 charge=-1.0 dipole_moment="-3.130019699219853 3.5661993067992044 -3.3252067133363257" energy=-12.609461342699325 pbc="F F F"
C       -3.56301800       2.41518500      -2.90066000      -4.48874948       0.54305354       0.99515070
H       -4.28603600       2.78451200      -2.07242800       1.47547291      -0.68194557      -0.95381198
H       -3.39514200       1.37151600      -2.71612400      -0.65163997      -0.54016465      -0.54378939
H       -4.24866800       2.68494900      -3.79934100       2.28310224      -0.54418380       0.82760475
Br      -1.88013800       3.11234900      -2.57415200       1.38473919       1.22669501      -0.32594186
Br       2.83179400      -3.72183700       3.31677700      -0.00212939      -0.00323702       0.00101816
6
Properties=species:S:1:pos:R:3:forces:R:3 charge=-1.0 dipole_moment="2.631083907885314 -2.923292917672615 0.5644373464581309" energy=-15.27094767457198 pbc="F F F"
C        7.91822800      -8.41443100       2.02484700      -0.28841095      -0.63474371      -1.51459328
H        8.28435200      -9.45722500       2.02602600      -0.14616054       0.48918995      -0.03478909
H        8.28730700      -7.89032600       1.11032900      -0.28771418      -0.40559515       0.71797804
H        6.81842300      -8.41974200       2.02698300       0.36100091       0.04004082      -0.01502244
F        8.37149500      -7.77974100       3.12902900       0.36206946       0.51284513       0.84866362
I       -2.75930000       2.75984100      -0.85799400      -0.00017329      -0.00091068      -0.00097805
6
Properties=species:S:1:pos:R:3:forces:R:3 charge=-1.0 dipole_moment="-1.992959693210589 7.58542351932164 5.051766956850444" energy=-12.163093438866907 pbc="F F F"
C        1.11338200       1.98109800       1.08395700       1.47764858       1.55189073       3.93942862
H        1.46332200       3.03978800       1.47104500      -0.42905647      -2.36415782      -0.70256633
H        1.71331800       1.75794800       0.22425300      -0.90519242      -0.36366149      -1.02887277
H        1.27628900       1.21221700       1.90567300       0.69096294       1.14290481      -1.27591107
I       -0.95898000       2.10987000       1.43821700      -0.83797812       0.03098231      -0.93317836
Cl       2.33486500      -7.63056700      -5.07824900       0.00309407       0.00213350       0.00126395
6
Properties=species:S:1:pos:R:3:forces:R:3 charge=-1.0 dipole_moment="0.0003952953762911894 0.00024395069406993075 -1.6946154028440117" energy=-13.828065476289211 pbc="F F F"
C        0.00073800       0.00096300      -3.44347000       0.04590037       0.01141313       0.05522679
H        0.00176400       1.02726300      -3.09956400      -0.00183423       0.01441978      -0.00037127
H       -0.88706400      -0.51133000      -3.09979800      -0.04868076      -0.02644997       0.02003918
H        0.88966900      -0.51256100      -3.09979400       0.00506199      -0.00341802       0.00337689
Cl       0.00048300      -0.00081200      -5.23364400      -0.00045971       0.00399909      -0.01770153
I       -0.00032100       0.00008800       2.24399800       0.00001491       0.00002931      -0.06189983
6
Properties=species:S:1:pos:R:3:forces:R:3 charge=-1.0 dipole_moment="-0.9117088325362306 6.60026700666799 -8.504513844768026" energy=-11.994419617403878 pbc="F F F"
C        1.18023300       2.32798700      -1.42835400      -1.94786482      -0.93823058       4.89983291
H        1.77670800       1.45966300      -1.24983100       0.66471558      -0.56244891      -0.98642180
H        0.77472300       2.35019600      -0.27033000       0.35580162       0.27970005      -2.86254666
H        1.76983600       3.22973600      -1.42871100      -0.29595868       0.42247393      -1.39855218
I       -0.58143800       1.71006500      -2.58337400       1.22135071       0.79657873       0.34826778
Cl       1.14197300      -6.56711500       8.73163800       0.00138325       0.00190313      -0.00068031
6
Properties=species:S:1:pos:R:3:forces:R:3 charge=-1.0 dipole_moment="6.830582391553322 -0.2410243440955127 1.9164523104616902" energy=-12.62376224462659 pbc="F F F"
C        4.28134600       0.29038500       2.07026200       4.44506078      -3.40574572       0.32315890
H        5.01325100       1.04977200       2.32547800       1.04128503      -0.28239868      -0.99193733
H        4.42272600      -0.48678400       2.88710600      -0.61184187       0.71277516      -1.50160766
H        3.46155400       0.85070200       2.18362100      -4.08898199       1.04696820      -0.71371669
Cl       4.65421500      -0.66923800       0.32047500      -0.78382657       1.92526945       2.87927529
Cl      -6.92395600       0.48359100      -1.48622600      -0.00133646       0.00238033       0.00372193
6
Properties=species:S:1:pos:R:3:forces:R:3 charge=-1.0 dipole_moment="-4.150290294857677 10.646582975662453 2.8625857080767303" energy=-11.6253693770583 pbc="F F F"
C       -0.32717300       2.18784900       1.98250500      -0.35599600      -9.56462789       1.43084010
H       -0.06832900       3.04472300       2.17643500       1.74670220      10.03385940       0.33202406
H        0.65665600       1.75491000       2.34867700      -1.21458100      -0.52290637      -0.58354070
H       -1.05378700       1.93037700       2.78053000       0.03723318      -0.28233646      -1.06463168
I       -0.67395300       1.42106300       0.07919700      -0.21442642       0.33700017      -0.11540912
F        4.23866800     -10.57482800      -2.59978800       0.00106906      -0.00136526       0.00061809
6
Properties=species:S:1:pos:R:3:forces:R:3 charge=-1.0 dipole_moment="-1.1107535485177138 9.687663069108558 -3.302880726822637" energy=-12.062657927594456 pbc="F F F"
C        0.09074600       2.77505700      -0.62514000       2.26993254      -3.16240416       4.27318252
H        1.20351100       2.31267600      -0.98860200      -3.57556093       1.27826568       0.63851552
H       -0.80821700       2.02533700      -0.56821000       2.51785169       0.79558474       0.08005387
H        0.30328100       3.19159100       0.52508800      -0.58028620      -1.35422276      -3.07902071
Br      -0.63274600       4.14223500      -1.55989600      -0.63210576       2.43992720      -1.91235942
Cl       1.22959200      -9.95048100       3.49287800       0.00013935       0.00316400      -0.00059135
6
Properties=species:S:1:pos:R:3:forces:R:3 charge=-1.0 dipole_moment="0.00010583544211276824 0.0010953968258671511 4.032616100190174" energy=-15.43409673782565 pbc="F F F"
C        0.00035800       0.00086500       1.60667800       0.03911574       0.00783261      -0.10365557
H        0.00138400       1.02898000       1.25485100      -0.00157763      -0.00264052       0.01116167
H       -0.88901600      -0.51233400       1.25461700      -0.02914963      -0.01472419      -0.00669053
H        0.89086100      -0.51356600       1.25462000      -0.01148666       0.00691061       0.01482498
F        0.00010300      -0.00091000      -4.48664800       0.00000874       0.00004525       0.04128524
F       -0.00070100      -0.00000900       2.99729700       0.00309098       0.00263024       0.04274511
6
Properties=species:S:1:pos:R:3:forces:R:3 charge=-1.0 dipole_moment="4.104517524498325 7.417628834332793 -6.150907182305125" energy=-12.608136837453968 pbc="F F F"
C        0.84364600       0.90995400      -2.92000900      -2.24609584       1.95944507      -1.42458049
H        0.70785700       1.46049100      -3.88719400       0.08402520      -0.13995955       1.02364161
H       -0.15693100       0.57457600      -2.62720400       0.67683165      -0.72934746      -0.32089838
H        1.59857300       0.21936200      -3.13474700       0.97523904      -1.26461210       0.59628618
I        1.20921200       2.30980600      -1.38143100       0.51030128       0.17603419       0.12789954
Cl      -4.19409600      -7.65493500       5.90500200      -0.00045406      -0.00107729      -0.00187639
6
Properties=species:S:1:pos:R:3:forces:R:3 charge=-1.0 dipole_moment="0.0004974265779300106 0.0004709677174018186 -2.5583442668756295" energy=-15.486796002423995 pbc="F F F"
C        0.00051800       0.00086700      -2.24176800       0.04458962       0.00519877       0.08062312
H        0.00154500       1.02812300      -1.89026800      -0.00183680       0.01344481      -0.00347407
H       -0.88811300      -0.51190300      -1.89050400      -0.04629169      -0.02460237       0.02054929
H        0.89027700      -0.51313400      -1.89050000       0.00398110      -0.00232582       0.00375998
F        0.00026400      -0.00090800      -3.63600100      -0.00044994       0.00826198      -0.01430099
Cl      -0.00054100      -0.00000700       3.04975800       0.00001028       0.00005194      -0.08628674
6
Properties=species:S:1:pos:R:3:forces:R:3 charge=-1.0 dipole_moment="-1.5060589791759038 2.2846591053441165 -3.482340594241153" energy=-13.301571735533932 pbc="F F F"
C       -3.26039500       4.67969400      -7.35570900       4.67018967      -0.81068174       0.32337281
H       -3.83549100       5.47659100      -7.16120700      -2.29838488       2.71429633       0.27416961
H       -3.76041500       3.81108900      -7.64081100      -0.70634071      -1.39779062      -0.10823831
H       -2.41230400       4.92055500      -8.01703200      -1.03209539      -0.06475992      -0.28997264
Cl      -2.28006500       4.50386800      -5.80975600      -0.63392610      -0.43732205      -0.20221779
I        1.28927700      -2.24249400       3.12677700       0.00112666      -0.00380369       0.00362217
6
Properties=species:S:1:pos:R:3:forces:R:3 charge=-1.0 dipole_moment="-5.456023420025322 2.2614599764329975 1.254245240934205" energy=-12.273389022041282 pbc="F F F"
C       -1.73328100      -0.22220300       1.38110300      -1.36274803      -2.33638064      -0.67461844
H       -0.81173600      -0.60122400       0.87994900      -0.43184201       0.83110762       0.84303034
H       -2.51124000      -1.16040000       1.09698100       1.74035158       3.00678247       1.19425385
H       -1.62990500      -0.02847600       2.55335500      -0.41925697       0.00101199      -3.04405525
Br      -2.30368600       1.37340100       0.13073800       0.48704205      -1.49938314       1.67106703
Cl       5.64597500      -2.64386700      -1.02310200      -0.01332963      -0.00316091       0.01001856
6
Properties=species:S:1:pos:R:3:forces:R:3 charge=-1.0 dipole_moment="2.4057295593490178 4.153014499137659 5.109195384449675" energy=-12.117507760976341 pbc="F F F"
C        0.09604900       1.93315100       2.36556000      -3.67808573      -4.07780540     -10.04091090
H       -0.53999900       2.46696800       1.51625800       1.78277890       0.20123306       2.95817011
H        0.49516300       1.97860600       3.22547000       2.55268603       2.48713215       6.25668848
H       -0.44985800       0.97495800       2.40346800      -0.42882404       0.56041414       0.41634751
Cl       1.48026300       1.13480000       1.33735200      -0.21938711       0.82864604       0.40880955
F       -2.80511800      -4.03456000      -4.89706100      -0.00877775       0.00007970       0.00002623
6
Properties=species:S:1:pos:R:3:forces:R:3 charge=-1.0 dipole_moment="5.5680290684132645 3.6422367801851228 -0.6838345421232294" energy=-12.649135697281707 pbc="F F F"
C        3.09729700       2.78072600       0.22084300       7.59943795      -1.27969368      -0.31730809
H        3.39618300       3.73778100      -0.15834200      -0.85847855       0.73219213       0.72834524
H        3.86513400       2.35848000       1.01298600      -2.56037877       1.33965746      -1.01798878
H        2.15987800       2.41515300       0.15808400      -2.87623624      -1.01686623      -0.13025724
Cl       4.23104700       1.93994500      -1.21930200      -1.30602846       0.21821417       0.73337381
Cl      -5.87839800      -3.42204900       1.08178500       0.00245078       0.00602718       0.00316760
6
Properties=species:S:1:pos:R:3:forces:R:3 charge=-1.0 dipole_moment="0.00022860455496357939 0.000452975692242648 -2.438408897987388" energy=-15.349446462677529 pbc="F F F"
C        0.00079200       0.00087100      -7.77845500       0.04427543       0.00506662      -0.07727451
H        0.00181900       1.02990900      -7.42916400      -0.00182600       0.01288740      -0.00367822
H       -0.88938200      -0.51279100      -7.42940000      -0.04573427      -0.02422648       0.02029423
H        0.89209500      -0.51402200      -7.42939700       0.00368542      -0.00208722       0.00372553
F        0.00053800      -0.00090400      -9.16746300      -0.00039955       0.00838385       0.06522632
I       -0.00026700      -0.00000400       2.85784600       0.00000051       0.00000514      -0.00796631
6
Properties=species:S:1:pos:R:3:forces:R:3 charge=-1.0 dipole_moment="-10.039158447681377 0.0022490031448963253 -1.5079910051716725" energy=-13.255559671770847 pbc="F F F"
C       -3.88605500       0.15258800      -1.34305700      -0.69884235      -0.74979956      -3.43018149
H       -3.17567600      -0.24217600      -2.09139000      -0.61901936       0.10164703       0.08346470
H       -4.17697000       1.14322900      -1.72082400       0.18495592      -0.04172232       1.01605479
H       -4.73822200      -0.50655000      -1.27358100      -0.50070952       0.14344648      -0.85454477
Cl      -3.16359300      -0.09194600       0.13544600       1.63169264       0.54634095       3.18698648
F        9.90981000       0.02811700       1.20461800       0.00191084       0.00018101      -0.00133646
6
Properties=species:S:1:pos:R:3:forces:R:3 charge=-1.0 dipole_moment="3.7129676645035077 -0.46282315095403054 3.7004960160049385" energy=-11.69267812402007 pbc="F F F"
C        5.61106200      -0.57390500       4.61374200      -0.25465545      -2.61401867      -3.77868992
H        6.35506400      -1.22684400       3.82273700      -2.81524659       0.77706662       2.65838717
H        5.37097800      -0.86695600       5.60326600       1.73590820       0.23993691       0.97472534
H        5.80606400       0.36255700       4.18960600       0.19696400       1.87510619       0.93339074
Br       3.50099300      -0.61519700       4.39089900       1.14006837      -0.27960800      -0.78204119
I       -3.27798600       0.50389700      -3.67885900      -0.00252791       0.00133183      -0.00576390
6
Properties=species:S:1:pos:R:3:forces:R:3 charge=-1.0 dipole_moment="-2.875555312330439 -6.53024416145734 2.0670545570565277" energy=-11.993581026133675 pbc="F F F"
C        0.80933300      -1.53828400       1.09783500       0.83182958      -1.76425307      -4.77890723
H        1.24782400      -1.11138400       0.11667800      -0.52013061      -0.16971236       1.93777324
H        0.94653500      -2.65112700       0.86866200       1.30901248       1.66658354       1.93229627
H        1.10351000      -0.94780700       1.94469700      -0.38842275      -0.46136239       0.58032374
I       -1.19831000      -1.85952700       0.46805600      -1.23683852       0.73627196       0.32352348
Cl       3.25626800       6.61735100      -2.01906000       0.00398984      -0.00779044       0.00475860
6
Properties=species:S:1:pos:R:3:forces:R:3 charge=-1.0 dipole_moment="-4.042620724533094 -0.46390637670405477 -1.6870587522771603" energy=-13.063785056747799 pbc="F F F"
C       -8.19155200      -0.96166200      -3.69277300      -2.83890691       0.19514006       1.09257494
H       -8.09715900      -2.05230600      -3.60745300      -0.09944925       0.61456672      -1.07940267
H       -7.37092300      -0.43979700      -4.17537700       0.41300456       0.04723065       0.99654886
H       -9.16245800      -0.52987200      -4.15780700       1.67130306      -1.36962213       0.71764225
Cl      -8.56820300      -0.74844400      -1.80055600       0.85181323       0.51296494      -1.72369649
I        4.14036400       0.40595300       1.22088100       0.00194478      -0.00028385      -0.00258036
6
Properties=species:S:1:pos:R:3:forces:R:3 charge=-1.0 dipole_moment="0.0005736280962512038 -7.620151832119313e-05 -2.9499819702874017" energy=-13.060214851826526 pbc="F F F"
C        0.00058700       0.00121700      -1.27479700       0.04661770       0.01435344       0.16442823
H        0.00161300       1.03027000      -0.94296500      -0.00182857       0.01201579       0.00049674
H       -0.88960000      -0.51245100      -0.94319800      -0.04770374      -0.02606790       0.01862867
H        0.89190200      -0.51368200      -0.94319500       0.00322159      -0.00252791       0.00220189
I        0.00033200      -0.00055800      -3.40952800      -0.00033681       0.00218904      -0.07664716
I       -0.00047200       0.00034200       3.60722900       0.00003137       0.00004474      -0.10960408
6
Properties=species:S:1:pos:R:3:forces:R:3 charge=-1.0 dipole_moment="-6.879303737329934e-05 0.0007514316390006545 6.577127674781664" energy=-13.230192476746828 pbc="F F F"
C        0.00055500       0.00116800       4.06765300       0.04393347       0.01120075      -0.03274866
H        0.00158100       1.03139800       3.73451000      -0.00181417      -0.00542194       0.00899886
H       -0.89065100      -0.51308900       3.73427300      -0.02881281      -0.01462598      -0.00559678
H        0.89288900      -0.51432000       3.73427700      -0.01422797       0.00812931       0.01314708
Br       0.00030000      -0.00060700      -7.02413600       0.00000154       0.00000206       0.00764595
Br      -0.00050400       0.00029300       6.00673600       0.00092200       0.00072505       0.00769377
6
Properties=species:S:1:pos:R:3:forces:R:3 charge=-1.0 dipole_moment="-0.0003005726556002618 0.0010244870796515964 7.287506804141197" energy=-12.930859706021685 pbc="F F F"
C        0.00079200       0.00087100      -0.68021400       0.04472537       0.01175868      -0.06792341
H        0.00181900       1.03181100      -1.00957800      -0.00182703      -0.00447938       0.00787580
H       -0.89102800      -0.51374000      -1.00981600      -0.03005106      -0.01537931      -0.00611511
H        0.89374100      -0.51497100      -1.00981200      -0.01347567       0.00763926       0.01209396
F        0.00053800      -0.00090400      -7.76606000       0.00000720       0.00001954       0.02752572
I       -0.00026700      -0.00000400       1.45292500       0.00062272       0.00046280       0.02738379
6
Properties=species:S:1:pos:R:3:forces:R:3 charge=-1.0 dipole_moment="-3.200400268224844 -7.713472233202245 -0.27154199382872946" energy=-11.964662141132704 pbc="F F F"
C       -1.35147200      -2.44281700       0.90262100      -0.93762277      -1.87531291      -0.28261619
H       -0.78415600      -2.45758000       1.98581100      -2.00206316       0.06912463      -3.01059336
H       -1.10794100      -3.29025000       0.21676100      -0.06970827      -0.32520909       1.88482650
H       -2.57855500      -2.49488100       0.77727900       3.32002000       1.10426215       1.02355419
Br      -0.42741600      -1.26936800      -0.36304600      -0.31381293       1.01982712       0.38317410
F        3.05989500       7.48083300       0.47900600       0.00360057       0.00598347       0.00284827
6
Properties=species:S:1:pos:R:3:forces:R:3 charge=-1.0 dipole_moment="-2.268584289218819 6.532715948207883 -1.880399996283186" energy=-12.334096585993837 pbc="F F F"
C       -0.64681000       0.45578000      -1.52904600       1.46118220      -1.25014141      -0.81406943
H       -1.36946200      -0.34102300      -1.31683300       0.11028851       0.67922174       0.34759569
H        0.33513600       0.22209800      -1.13841300      -0.02686032      -1.34642615      -0.34431136
H       -0.47844500       0.49701800      -2.63244600      -0.62195659       0.97462506       0.92185111
I       -0.64859300       2.14786600      -0.28198700      -0.91850662       0.93614850      -0.10215508
Cl       2.33935500      -6.87939200       1.71807600      -0.00424901       0.00689827      -0.00868262
6
Properties=species:S:1:pos:R:3:forces:R:3 charge=-1.0 dipole_moment="-2.059716456677639 2.410799077026219 -2.5490783739186567" energy=-14.616142204409632 pbc="F F F"
C       -3.93852200       4.69754300      -4.94964200      -3.37466931      -1.01834462       0.78340748
H       -4.92323800       5.19259300      -5.14520900       0.83064328       0.42316505       0.27529421
H       -4.20268500       4.14835100      -3.89659800       1.74200737       0.99755571      -2.66087651
H       -3.79453700       4.16796800      -5.87221200      -0.28273344      -1.84504948       0.29174155
F       -2.90345500       5.54226600      -5.02612900       1.08881291       1.44493900       1.31012063
Br       1.79093400      -2.61641600       2.56705800      -0.00259784      -0.00121202      -0.00003497
6
Properties=species:S:1:pos:R:3:forces:R:3 charge=-1.0 dipole_moment="2.5846867084174976 -3.403048681010267 -8.38208763874966" energy=-12.461201103365644 pbc="F F F"
C        1.68930800      -1.89656800      -4.79741600       3.31711979       2.76800976       6.27337546
H        2.75159200      -1.79743700      -4.54513700       0.04491975      -0.13085631       0.32616811
H        1.28858100      -2.25555200      -3.89074400      -0.93813905      -2.25832555       0.51416719
H        1.40341200      -0.92120100      -4.56929800      -1.08201491       2.35285730      -1.46952132
Cl       1.64404000      -2.58797300      -6.21003500      -1.34316342      -2.73164768      -5.64416322
Cl      -2.56047800       3.54995000       8.66825100       0.00104130      -0.00073225      -0.00211448
6
Properties=species:S:1:pos:R:3:forces:R:3 charge=-1.0 dipole_moment="-3.859675696005805 -0.5094494841540211 4.641767862586529" energy=-13.980586533561993 pbc="F F F"
C       -3.55881300      -0.79791500       4.44011800       3.42964002       1.16456121      -2.10576039
H       -4.29411200      -1.23739700       3.84540600      -1.92949377      -2.57670887       0.91047346
H       -3.10000700      -1.01083600       5.48900800      -1.03145725      -0.59151421      -2.44420243
H       -2.91914500      -0.63938400       3.48814400       1.23152817      -1.62344248       2.08702321
F       -3.96329200       0.47617800       4.42574900      -1.69999297       3.63176474       1.55142433
Cl       3.96092800       0.19938300      -4.66441200      -0.00070962      -0.00260864       0.00101713
6
Properties=species:S:1:pos:R:3:forces:R:3 charge=-1.0 dipole_moment="2.1237230861813887 1.4149018545297554 -1.2532255164494486" energy=-13.301097842527014 pbc="F F F"
C        4.56346000       2.64715000      -2.63934100       1.29404506       1.00693098      -3.25345979
H        4.34498300       1.73549100      -2.17539700      -1.05002421      -1.19807606       0.45179788
H        5.47617200       3.00162400      -2.21362700       0.94867955      -0.11371065      -0.19269186
H        4.59903700       2.62400100      -3.79959100       0.50176933      -0.77907517       2.19128865
Cl       3.49329000       3.96860900      -2.39864000      -1.70118133       1.09201393       0.80398299
I       -1.90918700      -1.71151600       1.22267100       0.00584875      -0.00727159      -0.00070911
6
Properties=species:S:1:pos:R:3:forces:R:3 charge=-1.0 dipole_moment="-3.343429459759302 -11.917402576008724 5.175660042096494" energy=-11.804607254777087 pbc="F F F"
C       -0.77677800      -1.04076100       2.28652500       3.96624471      -2.25728631       4.14481555
H       -0.23651300      -1.90044500       3.05372000      -0.81098616       2.31694002      -2.18885896
H       -1.62640900      -1.03684900       2.91829700      -1.97204604       0.39551026      -0.91509991
H       -0.15650700      -0.14097800       2.47241900      -0.60497908      -0.49922343      -0.52228571
I       -0.44107100      -1.86507200       0.41544300      -0.57828640       0.04324339      -0.51950480
F        3.33964900      12.01907000      -4.90911700       0.00021546       0.00082430       0.00086800
6
Properties=species:S:1:pos:R:3:forces:R:3 charge=-1.0 dipole_moment="0.0003900036041855509 0.00021749183354173872 -3.677316995827821" energy=-13.70676459951654 pbc="F F F"
C        0.00073800       0.00096300      -7.26574300       0.04563348       0.01132211      -0.05533734
H        0.00176400       1.02862500      -6.92366300      -0.00182548       0.01398475      -0.00041189
H       -0.88824300      -0.51201000      -6.92389600      -0.04818556      -0.02612704       0.01991422
H        0.89084800      -0.51324100      -6.92389200       0.00481053      -0.00322519       0.00341494
Cl       0.00048300      -0.00081200      -9.05217000      -0.00043143       0.00403869       0.03775562
I       -0.00032100       0.00008800       4.11797800       0.00000154       0.00000309      -0.00693889
6
Properties=species:S:1:pos:R:3:forces:R:3 charge=-1.0 dipole_moment="-7.824472444890118 4.764478765944178 -0.9097932110339896" energy=-14.555855799289843 pbc="F F F"
C       -4.21997500       2.10919900      -0.51507600      -5.94009670       0.84252177       1.83934317
H       -5.02800900       2.45229000      -1.20604800       0.69105036       1.41272771       0.29440727
H       -4.92786900       1.90116800       0.41893600       2.24337972      -0.00386797      -1.51625472
H       -4.01206800       1.30392600      -1.08881400       1.89090408      -3.26199276      -0.75481167
F       -3.22363400       2.93539800      -0.26609100       1.11649957       1.01444323       0.13816955
F        7.58894500      -4.97012900       0.81791100       0.00005194      -0.00201317      -0.00044686
6
Properties=species:S:1:pos:R:3:forces:R:3 charge=-1.0 dipole_moment="-0.26563531780441585 1.7539467516924299 2.3666752228549854" energy=-13.651181412631107 pbc="F F F"
C       -0.63292800       3.48685800       4.62726300      -1.86163412      -1.64083651      -0.25745178
H       -0.60977600       2.37317100       4.73963700       0.17521401       1.06165485      -0.01428042
H       -0.07892900       3.76746200       3.76098700       0.50208095       0.29762630      -0.38712589
H       -1.69806400       3.76408500       4.49008500       0.73635012      -0.09808348       0.00662573
Cl      -0.05667700       4.26132300       6.07268600       0.45099415       0.37288301       0.64439820
I        0.13486500      -1.94846000      -2.71679100      -0.00280867       0.00743409       0.00899989
6
Properties=species:S:1:pos:R:3:forces:R:3 charge=-1.0 dipole_moment="-5.32876688442893 2.7253155521248384 -1.4022084807799606" energy=-13.257813844251825 pbc="F F F"
C       -6.79457400       3.28179300      -1.77279800      -0.40827373       4.11888598       4.08022121
H       -7.39170100       2.69050900      -1.09673500       0.71124535      -0.31901376       0.53992348
H       -5.89046300       3.87600400      -1.31892500      -1.80821225      -1.75286205      -0.87287416
H       -6.62676900       2.78216700      -2.61170300       1.16887141      -1.97396923      -3.54480282
Cl      -8.03188500       4.57274600      -2.17320900       0.33883286      -0.07314635      -0.20182133
Br       5.63481200      -3.05074600       1.50310600      -0.00330541       0.00115288      -0.00082995
6
Properties=species:S:1:pos:R:3:forces:R:3 charge=-1.0 dipole_moment="-5.056212045419182 -6.832246653880546 -2.9962204165920485" energy=-12.569710131520349 pbc="F F F"
C       -1.02906900      -0.28249900       1.16014600      -2.87857183      -0.76013488       0.03319140
H       -0.80560000      -1.16664100       1.70721000       0.17045952      -0.29121499       0.93340873
H       -2.15477800      -0.01747800       1.37637700       2.40083512      -0.34000322      -0.88887260
H       -0.34830700       0.49213700       1.38424000       0.54666182       0.86642532      -0.06695153
I       -0.67574400      -1.14127800      -0.78605500      -0.23319033       0.52981750      -0.01426705
F        5.03305700       6.98608100       3.35913300      -0.00623133      -0.00506147       0.00271046
6
Properties=species:S:1:pos:R:3:forces:R:3 charge=-1.0 dipole_moment="-3.6259217176062286 10.141605568114905 -0.4580658478310616" energy=-12.398712301635676 pbc="F F F"
C        1.08188900       1.81655800       0.49767700       1.73419019      -2.68260079      -3.54374918
H        1.75478600       2.04922600      -0.42065000      -1.39434380       0.19089465       1.73113983
H        1.29404500       0.74398100       0.64518700       0.59481293       0.78585825       0.71255558
H        1.26339300       2.40608900       1.33789000      -0.24586433       1.01773835       1.15203582
I       -0.87757200       1.42067400      -0.18092300      -0.69124936       0.68574566      -0.05295136
F        3.96752600     -10.15492800       0.56004700       0.00195969       0.00220909       0.00067980
6
Properties=species:S:1:pos:R:3:forces:R:3 charge=-1.0 dipole_moment="-2.079943726374231 1.6070545665208553 4.002111150710011" energy=-12.774666846739098 pbc="F F F"
C       -2.28118200       0.68272300       2.24218700       0.76633432       1.40823342       0.21271458
H       -1.63981900      -0.10488400       2.01365300       1.36352399      -1.16493968      -0.09864964
H       -2.20287600       1.42251400       1.47196400      -0.26804215       0.25714222      -0.35567667
H       -3.23633900       0.28169600       2.35585800      -1.64093627      -0.15984087       0.42213866
I       -1.60344200       1.70153800       4.01339200      -0.20836273      -0.34287154      -0.19012589
I        1.99525600      -1.80900300      -4.37744100      -0.01225954       0.00251505       0.01019083
6
Properties=species:S:1:pos:R:3:forces:R:3 charge=-1.0 dipole_moment="-5.245347388955645 -5.0736611347603136 2.6655026520148075" energy=-14.155885323072004 pbc="F F F"
C       -2.24422600      -2.56926500       1.51587100       5.11198956      -4.64867982      -0.37138200
H       -1.79854300      -1.82901800       2.17569200      -0.09760165       1.26145890      -1.25941024
H       -1.42817000      -3.25578100       0.73707300      -1.94303731       2.97116806       2.01404039
H       -2.29908600      -3.35390800       2.25049100      -1.00847364      -0.77440245       0.44608026
F       -3.36745600      -2.38622500       0.88331400      -2.06560644       1.19210493      -0.83281072
F        5.47758400       5.03670200      -2.46758900       0.00085412      -0.00118631       0.00233713
6
Properties=species:S:1:pos:R:3:forces:R:3 charge=-1.0 dipole_moment="-1.965945196611305 -2.9852923780166956 0.15636763230393055" energy=-14.150810672180214 pbc="F F F"
C       -5.92322700      -8.15838300       0.48407500       2.16325694      -1.20034377       2.43920267
H       -6.73279500      -8.77861600       0.19976400      -1.17467439       0.59502171      -2.64684806
H       -5.90688500      -8.88926200       1.36008200       1.03717332       1.88028079       0.58018284
H       -4.83426300      -8.32615600       0.02848100      -2.92850163       1.11615659       0.41725408
F       -6.31086300      -6.82605700       0.85260700       0.89929791      -2.39225843      -0.78866847
I        2.07190700       2.57318600      -0.22955200       0.00360366       0.00085669      -0.00087058
6
Properties=species:S:1:pos:R:3:forces:R:3 charge=-1.0 dipole_moment="-0.14839081503189122 -2.9334076108753315 -3.651470922509462" energy=-12.050145646893906 pbc="F F F"
C       -0.17313200      -2.07649200      -1.81319100       0.36109604       3.30762008       0.41559109
H        0.83096600      -2.18941200      -1.13032200      -3.14283601       0.09920088      -1.76617883
H       -1.19416600      -2.36432600      -1.54509400       0.89802058      -0.65305922       1.15794833
H       -0.42896900      -0.96799700      -2.12585600       1.31643834      -1.81345576       1.37651680
I       -0.07703600      -2.80593000      -3.75497000       0.56807089      -0.92686733      -1.17130521
I        0.11158200       3.14518800       4.05082700      -0.00077185      -0.01344173      -0.01258555
6
Properties=species:S:1:pos:R:3:forces:R:3 charge=-1.0 dipole_moment="-1.0483953060248707 3.00686428700533 4.223458569407918" energy=-12.295863013911658 pbc="F F F"
C       -1.84491600       1.80382500       3.95230200       2.02519332       0.23099152      -2.03003059
H       -2.63471200       2.49750200       4.03583600      -0.52923797       0.49523307       0.43823788
H       -1.49565900       1.20336100       4.72292400       1.11798002       0.67355400       2.85738697
H       -2.06040300       0.90503400       3.43282300      -0.67355503      -0.00098062      -2.37848658
Br      -0.21552600       2.85351100       3.03600600      -1.93617555      -1.39245970       1.11266503
Br       0.70867600      -3.29433500      -4.06187500      -0.00467581      -0.00692141       0.00047874
6
Properties=species:S:1:pos:R:3:forces:R:3 charge=-1.0 dipole_moment="5.997588669088463 -2.056525518097939 -0.23536743971458526" energy=-14.118195169955255 pbc="F F F"
C        2.81189800      -1.36315700       0.09823200       1.78311366       4.30120497       7.82229554
H        2.18703900      -0.91091800       0.91643300      -0.39169834      -0.63155092      -1.43185774
H        3.45622100      -1.98534000       0.68389300       1.36607966      -0.21616243      -0.08500428
H        2.50586800      -1.80541000      -0.64862900      -4.93881186      -5.75123733      -6.19587726
F        3.37379700      -0.35714300      -0.60020500       2.18113537       2.30405725      -0.11325505
F       -6.15385500       1.78832200       0.42897300       0.00123516      -0.00498640       0.00301385
6
Properties=species:S:1:pos:R:3:forces:R:3 charge=-1.0 dipole_moment="0.0005106560081941068 5.450525268807564e-05 -3.946381911133901" energy=-13.264160451843324 pbc="F F F"
C        0.00064800       0.00111300      -3.81158500       0.04638785       0.01294139      -0.02337904
H        0.00167500       1.03102400      -3.48026300      -0.00185119       0.01356617       0.00016147
H       -0.89028100      -0.51298400      -3.48049700      -0.04859900      -0.02646180       0.01919740
H        0.89270600      -0.51421500      -3.48049300       0.00443824      -0.00313520       0.00295214
Br       0.00039400      -0.00066200      -5.75456400      -0.00037847       0.00309149       0.02030966
I       -0.00041100       0.00023900       4.42868900       0.00000411       0.00000771      -0.01841527
6
Properties=species:S:1:pos:R:3:forces:R:3 charge=-1.0 dipole_moment="-5.783980996272263 4.541748078017857 -2.128234321901445" energy=-12.162305242131103 pbc="F F F"
C       -1.64052700       1.66966000       0.07600400       6.63517546       3.32809995       3.78097563
H       -0.88066100       1.10564200       0.79023000      -0.55100442      -0.71823978      -3.14308026
H       -2.27341300       1.68265100       0.85835500      -3.42740367       0.89106163       1.93565825
H       -1.00656700       2.70718300       0.10443800      -1.90168214      -2.14667230      -0.09583685
Cl      -2.30056800       1.47573100      -1.41665300      -0.75255578      -1.35829848      -2.48156159
F        5.90149600      -4.51120800       2.43045000      -0.00281742       0.00407674       0.00315217
6
Properties=species:S:1:pos:R:3:forces:R:3 charge=-1.0 dipole_moment="0.0003952953762911894 0.00022807537775301556 -2.646498840029038" energy=-13.740540374208452 pbc="F F F"
C        0.00073800       0.00096300      -5.22021200       0.04573993       0.01135142      -0.03421213
H        0.00176400       1.02838400      -4.87811300      -0.00182960       0.01410610      -0.00039749
H       -0.88803500      -0.51189000      -4.87834600      -0.04834240      -0.02622731       0.01993582
H        0.89063900      -0.51312100      -4.87834300       0.00487070      -0.00327456       0.00340825
Cl       0.00048300      -0.00081200      -7.00811200      -0.00043966       0.00403200       0.02702075
I       -0.00032100       0.00008800       3.11498100       0.00000309       0.00000771      -0.01734415
6
Properties=species:S:1:pos:R:3:forces:R:3 charge=-1.0 dipole_moment="5.876772220144632 0.5925673486172837 3.424374522595989" energy=-15.250120496012123 pbc="F F F"
C        5.46049500       0.43945700       3.01525300       0.32167845       0.08713932      -1.91682389
H        5.81895400      -0.58416000       2.88482500       0.04072679       0.04645932       0.44379918
H        5.89225500       1.03663500       2.19798600      -0.53779820      -0.33825487      -0.13330914
H        4.37565200       0.44589700       2.98071900      -0.07043435       0.12497722       0.09892269
F        5.92692200       1.03184600       4.13319900       0.24363827       0.08020814       1.50769449
Cl      -6.01130200      -0.75421900      -3.72669600       0.00318868      -0.00036870       0.00091480
6
Properties=species:S:1:pos:R:3:forces:R:3 charge=-1.0 dipole_moment="-1.0611590603436707 -2.269244173200392 -4.249880387531371" energy=-13.6347096812186 pbc="F F F"
C       -1.95716900      -4.44506000      -8.32762900       8.20115379      -1.37720174      -6.35124904
H       -1.37853000      -3.67110200      -9.19967600      -0.95342169      -2.21342945       2.52309263
H       -1.17237700      -5.48962400      -8.31464600      -2.84982690       2.83841531      -0.02705212
H       -1.80956000      -3.93848300      -7.49143500      -0.41250834       1.92148067       4.20801842
F       -3.11964600      -4.58413100      -8.83233600      -3.98609414      -1.16844358      -0.35142303
Br       1.26229400       2.31505000       4.41321600       0.00014398      -0.00103924      -0.00168562
6
Properties=species:S:1:pos:R:3:forces:R:3 charge=-1.0 dipole_moment="2.730387186510882 -4.0662754750225085 -5.054118620374191" energy=-11.850773474313547 pbc="F F F"
C        3.04509000      -2.01654000      -2.34606600       1.41334683      -1.87257314      -5.48863769
H        3.59518300      -1.66481200      -3.37534200      -1.26779564      -0.30678354       2.87925112
H        3.15235400      -3.12754800      -2.47384500       1.45767831       1.27110876       1.66604978
H        3.31336100      -1.43140900      -1.50403100      -0.28680658       0.04166422       0.83824294
I        1.06101500      -2.37047300      -3.00351300      -1.32045698       0.86510377       0.10257571
Br      -2.41614900       4.11308900       5.16045200       0.00358258       0.00134520       0.00221886
6
Properties=species:S:1:pos:R:3:forces:R:3 charge=-1.0 dipole_moment="-4.42750401002923 -2.6740647392817305 1.6672257196024378" energy=-12.702448804748578 pbc="F F F"
C       -6.35801100      -3.34252000       2.67326300      -1.46483214      -3.99784512       3.00211746
H       -6.61000300      -2.35341800       2.69878900      -0.06021781       2.94552182      -1.93570453
H       -6.10485600      -3.32264000       3.85587100       0.33140185      -1.34451582      -2.77020548
H       -7.35024100      -3.93888000       2.55269100       1.89208627       1.07966646       0.34513154
Cl      -5.21749400      -4.12841100       1.46950600      -0.69910357       1.31325326       1.35723610
Br       4.19744500       2.85294400      -1.43224400       0.00156015       0.00322056       0.00051525
6
Properties=species:S:1:pos:R:3:forces:R:3 charge=-1.0 dipole_moment="0.0003227980984439431 0.00046567594529618023 -1.8005995437529483" energy=-15.439486817516267 pbc="F F F"
C        0.00070200       0.00087000      -3.77225500       0.04452740       0.00516843       0.00486041
H        0.00172800       1.02884300      -3.42203900      -0.00183525       0.01318153      -0.00355892
H       -0.88855000      -0.51225900      -3.42227500      -0.04606646      -0.02445531       0.02042279
H        0.89108200      -0.51349000      -3.42227200       0.00380420      -0.00220446       0.00372707
F        0.00044700      -0.00090500      -5.16548700      -0.00043297       0.00830621       0.02355851
Br      -0.00035700      -0.00000500       2.26827100       0.00000463       0.00002982      -0.04854603
6
Properties=species:S:1:pos:R:3:forces:R:3 charge=-1.0 dipole_moment="-0.8860807802286238 -5.525790143466059 -6.9153301218251215" energy=-11.48212291146542 pbc="F F F"
C        1.00358100      -1.64677800      -1.02953200       2.86925621       0.19012332      -6.75848970
H        1.28722900      -2.72766200      -1.52782800      -0.16434801       3.22000305      -0.61836835
H        0.95668600      -2.12981200      -0.21806800      -0.43757711      -1.72988205       7.55439942
H        1.54701700      -0.68511100      -1.19739500       1.22043129      -2.11335697       0.76860307
Br      -0.58492200      -0.94970500      -1.55688700      -3.49185403       0.43572386      -0.94655479
F        1.18442900       5.40699300       7.06794600       0.00363040      -0.00198592       0.00035224
6
Properties=species:S:1:pos:R:3:forces:R:3 charge=-1.0 dipole_moment="1.1094570643518324 2.7855465022312145 2.8242134810071144" energy=-14.419311509937486 pbc="F F F"
C        2.13990100       5.38136800       5.50368300      -5.35031336       3.71300749      -2.40320105
H        3.06032900       5.04095900       5.55180000       4.96363844      -0.26277962       1.42121029
H        1.57643900       5.86302800       6.40635100       1.25166711      -1.54352230      -1.38856345
H        1.97899000       6.09097000       4.60200000       0.98329174      -0.16397109       1.92630714
F        1.57187000       4.27939100       4.93307400      -1.84715367      -1.73916321       0.45067225
Br      -0.96005700      -2.50850500      -2.68514000      -0.00084538      -0.00374661      -0.00590891
6
Properties=species:S:1:pos:R:3:forces:R:3 charge=-1.0 dipole_moment="0.0006032620200427789 -1.0583544211276824e-05 -5.953899798584311" energy=-13.240004006301595 pbc="F F F"
C        0.00055500       0.00116800      -3.57783000       0.04633334       0.01291671      -0.03937182
H        0.00158100       1.03124500      -3.24658300      -0.00184862       0.01354869       0.00016506
H       -0.89051900      -0.51301300      -3.24681700      -0.04854809      -0.02642683       0.01919123
H        0.89275700      -0.51424400      -3.24681300       0.00444492      -0.00313058       0.00297065
Br       0.00030000      -0.00060700      -5.52003900      -0.00038155       0.00309869       0.02832996
Br      -0.00050400       0.00029300       6.41167300       0.00000206       0.00000514      -0.01043662
6
Properties=species:S:1:pos:R:3:forces:R:3 charge=-1.0 dipole_moment="0.7819958563284007 -6.145314308366675 3.347299861877366" energy=-11.894261187258486 pbc="F F F"
C        1.97603800      -4.77107500       3.66632700      -1.90964896      -0.54445685       4.84941820
H        2.57824100      -5.62254400       3.76843100       1.14820539      -1.18371696      -0.99017510
H        1.61388000      -4.84465400       4.84428700       0.23997342       0.64396575      -2.94311836
H        2.57996900      -3.86443000       3.69202000      -0.69837698       0.20726487      -1.30965114
I        0.20334900      -5.39729200       2.52318400       1.21802370       0.87505189       0.39319009
I       -0.55482700       6.20782200      -3.17040400       0.00119248       0.00180954       0.00042629
6
Properties=species:S:1:pos:R:3:forces:R:3 charge=-1.0 dipole_moment="3.177967387914621 5.599220360735529 0.5579962014511479" energy=-13.031728453057935 pbc="F F F"
C        3.46937900       6.26732400      -0.18576300       0.84320671       0.77603818       0.35541596
H        4.08206700       5.40481800      -0.37272600       0.17493787      -0.35570444       0.40583015
H        3.46793800       6.84728500      -1.11272200       0.03255120       0.46908649       0.66945515
H        2.49278400       6.03521900       0.14877000      -0.82513906      -0.41377589      -0.03582318
Br       4.18939300       7.23978200       1.45234200      -0.22660882      -0.47813626      -1.39303305
I       -3.34882700      -5.83554000      -0.91284400       0.00141359       0.00282513      -0.00132772
6
Properties=species:S:1:pos:R:3:forces:R:3 charge=-1.0 dipole_moment="0.46217596722551096 -9.914840433135247 1.6332038583808675" energy=-11.170306622605617 pbc="F F F"
C       -0.34200500      -5.06226000      -0.37546700      -5.31340980       4.08203230      -1.52451774
H       -1.34939500      -5.47937400      -0.97103700       1.45971616       0.74465992       3.12386332
H        0.02462100      -5.02241100      -1.31836200       3.68072831      -0.58603416      -2.32167650
H       -0.43484900      -3.84706000      -0.22277400      -0.46003518      -3.17409908      -0.12882308
I        0.42429200      -5.79072800       1.32568800       0.63313163      -1.06501014       0.85204000
Br      -0.53359400      10.04660000      -1.87132800      -0.00023397      -0.00140896      -0.00077853
6
Properties=species:S:1:pos:R:3:forces:R:3 charge=-1.0 dipole_moment="0.0006032620200427789 5.291772105638412e-06 -4.554697044360354" energy=-13.2791764152858 pbc="F F F"
C        0.00055500       0.00116800      -2.49239500       0.04643053       0.01295270      -0.01164761
H        0.00158100       1.03095300      -2.16094000      -0.00185222       0.01354971       0.00013215
H       -0.89026600      -0.51286700      -2.16117400      -0.04860362      -0.02646848       0.01917683
H        0.89250400      -0.51409800      -2.16117000       0.00440893      -0.00312389       0.00292232
Br       0.00030000      -0.00060700      -4.43574600      -0.00038721       0.00308995       0.01443726
Br      -0.00050400       0.00029300       5.04825000       0.00000617       0.00001028      -0.02420745
6
Properties=species:S:1:pos:R:3:forces:R:3 charge=-1.0 dipole_moment="-0.49971103594801475 -0.08440588179377491 3.915006465142361" energy=-13.72198374186773 pbc="F F F"
C       -1.70922500      -0.05442500      11.18577100      -6.95050072      -8.86743928      -4.70420228
H       -1.27112400       0.57507500      11.77332400       2.11649166       4.10183699       3.34200499
H       -1.20096400      -0.99310200      10.95555200       1.10553330       0.52185993       0.66049485
H       -2.82893500      -0.73275700      11.50133000       3.19960237       2.86565615       0.30713784
F       -2.08682800       0.33846100       9.90012800       0.52738883       1.37821733       0.39875705
I        0.64788300      -0.02960000      -3.59332100       0.00143930      -0.00066746      -0.00275314
6
Properties=species:S:1:pos:R:3:forces:R:3 charge=-1.0 dipole_moment="-8.754326763976582 7.4227369819463656 -5.064733915218101" energy=-12.879682660953696 pbc="F F F"
C       -2.33233500       0.88373000      -2.10552500       2.34025375      -0.77194190      -4.15675936
H       -1.55144800       0.17320800      -2.57490000      -1.16466560       1.00044768       1.02529431
H       -2.46597800       1.63903300      -2.90365100      -0.35808373      -0.45106203       0.53839418
H       -3.19680100       0.32243400      -1.95297100      -1.44965029      -0.58227058       0.66495778
Br      -1.61551700       1.73941400      -0.65682400       0.63197155       0.80719636       1.92918061
F        8.63903700      -7.59072800       4.78372200       0.00058313      -0.00152415      -0.00053119
6
Properties=species:S:1:pos:R:3:forces:R:3 charge=-1.0 dipole_moment="0.0006561797410991631 0.000179920251591706 -2.9027433790547885" energy=-13.93108626494411 pbc="F F F"
C        0.00046900       0.00103600      -1.16969800       0.04592351       0.01146249       0.21761253
H        0.00149600       1.02566900      -0.82187000      -0.00183371       0.01487332      -0.00035224
H       -0.88588900      -0.51042200      -0.82210400      -0.04905100      -0.02669114       0.02021710
H        0.88795600      -0.51165300      -0.82210000       0.00540497      -0.00364377       0.00332289
Cl       0.00021500      -0.00073900      -2.95922100      -0.00047617       0.00392350      -0.09829020
Cl      -0.00059000       0.00016200       3.51711900       0.00003394       0.00006016      -0.14326394
6
Properties=species:S:1:pos:R:3:forces:R:3 charge=-1.0 dipole_moment="-2.1395946982578296 -0.1751740611901589 3.115073088907477" energy=-14.29924525237539 pbc="F F F"
C       -6.98238900      -0.47685500       9.20961100      -0.31647763      -2.93030860       3.19108328
H       -6.42875900      -0.02931400      10.23084300      -2.42336570      -1.50581399      -2.12709180
H       -6.35632400       0.01295100       8.51067800      -0.48018903       0.48428634      -1.66049825
H       -6.89192100      -1.70007100       9.12536300       0.15876100       3.46113963       0.39757743
F       -8.43640800      -0.28704700       9.11293500       3.05994312       0.49100052       0.19661536
I        2.59432100       0.13511300      -3.11586700      -0.00030596      -0.00019797       0.00233662
6
Properties=species:S:1:pos:R:3:forces:R:3 charge=-1.0 dipole_moment="8.619735832241775 -3.009118581922332 0.26169400594013636" energy=-12.772763287100181 pbc="F F F"
C        6.29085400      -2.41002000       0.73347100      -1.05184867      -0.14802253      -3.57050614
H        5.86372200      -3.04305600       1.51986600      -0.36142206      -0.02348651      -0.91208092
H        6.78560800      -1.59338900       1.20754500       0.57199491       0.52625138      -0.25114383
H        6.79264200      -2.91048400      -0.20626100      -0.64741154       0.85783064       2.74074938
Cl       4.88267500      -1.47383600      -0.45938200       1.49205756      -1.21318232       1.99117042
Cl      -8.24662100       2.76836800       0.05220700      -0.00369982       0.00074973       0.00118579
6
Properties=species:S:1:pos:R:3:forces:R:3 charge=-1.0 dipole_moment="3.1938120119533235 0.5032898614230581 -3.068444638998644" energy=-12.885818749393616 pbc="F F F"
C        1.74423600      -0.03134500      -3.29628200       1.43634895      -2.08848617       0.20114719
H        1.70118400       0.45390100      -4.25535200      -0.20237566       1.29557384       0.27014377
H        0.77896500      -0.22270700      -2.79871100       0.69873076       0.28607227      -0.32309616
H        2.26445500      -0.97911500      -3.62764100      -0.88650821       0.66337809       0.97587205
Br       3.06113800       0.71325100      -1.95177300      -1.04129223      -0.15261864      -1.11054541
Br      -3.49571000      -0.68650900       2.82204100      -0.00405566      -0.00429786      -0.01245545
6
Properties=species:S:1:pos:R:3:forces:R:3 charge=-1.0 dipole_moment="2.3279034669913936 5.8174673301567426 0.8797094866134352" energy=-12.83233144085314 pbc="F F F"
C        3.41922100       7.72313700       1.71248700       5.06796250      -3.18443440       2.37149575
H        3.48299400       6.57017500       1.95988500      -0.87788730       2.37257047      -0.32557728
H        3.43821400       8.30364700       2.62598300      -2.04197594       0.31988897       0.16662087
H        4.55962000       7.89399600       1.64333200      -1.36828361      -0.18542695      -1.41820313
Cl       2.50477900       8.04753000       0.33329500      -0.78082403       0.67821593      -0.79573078
Br      -2.13078300      -5.88327600      -0.63343200       0.00071939      -0.00074048       0.00097753
6
Properties=species:S:1:pos:R:3:forces:R:3 charge=-1.0 dipole_moment="2.37606494327923 -2.52475580178951 -2.6774594110874976" energy=-13.04703782042409 pbc="F F F"
C        2.52657800      -3.55145200      -4.12053600      -1.46542607       1.26484298       0.85758587
H        2.82729600      -4.53472900      -4.03661800       1.01280029      -1.93965528       0.01098427
H        2.83756600      -3.09662300      -5.04221500       0.13930135       0.32234077      -0.08240489
H        1.43765600      -3.57893200      -3.99532600       0.34025879       0.42103154      -0.27871583
Br       3.21949100      -2.62445300      -2.53986000      -0.02025721      -0.07107404      -0.50944408
I       -2.54611600       2.34669500       2.39042400      -0.00700677       0.00226926       0.00137554
6
Properties=species:S:1:pos:R:3:forces:R:3 charge=-1.0 dipole_moment="-8.270822838456507 3.126828760640153 1.2019731160747087" energy=-12.792539934388769 pbc="F F F"
C       -2.47785900       0.08478100      -0.69234700      -1.21431412      -0.51154004      -4.34398916
H       -2.35307400       0.79016900      -1.57945700      -0.14540566      -1.29263712       0.80928718
H       -3.52852700       0.20214900      -0.45078900      -0.02506980      -0.49798672       0.31032549
H       -2.21366400      -0.97199400      -1.04487900      -0.32845794       1.59754324       0.90888915
Br      -1.42642000       0.82180900       0.58170500       1.71217691       0.70766586       2.31948901
F        8.09857000      -3.25470500      -1.45894000       0.00142696      -0.00286627      -0.00314343
6
Properties=species:S:1:pos:R:3:forces:R:3 charge=-1.0 dipole_moment="0.014938672654217236 -1.0145067974603625 -1.6908958162309584" energy=-13.023682006249773 pbc="F F F"
C       -0.53149300      -0.59585000      -1.98044700       1.13407667      -0.57686252       0.91327597
H       -0.32258300       0.41070200      -2.19199700      -0.12280104       1.29157783      -0.24193568
H       -1.57389600      -0.82950100      -2.03596200      -0.82535452       0.17006460       1.59238098
H       -0.21709600      -1.19456600      -2.78182700       1.34063551      -0.81673823      -1.06479880
Cl       0.53365100      -0.92553200      -0.49880500      -1.37836645      -0.48115885      -1.53440414
Cl      -0.22173700       1.23073600       1.61012700      -0.14756333       0.41348227       0.33655794
6
Properties=species:S:1:pos:R:3:forces:R:3 charge=-1.0 dipole_moment="-1.0312182137699686 0.7069384191364466 -0.5485080540657382" energy=-15.26479166226128 pbc="F F F"
C       -2.24759400       1.58433600      -1.12348900      -0.64322938      -0.86143378      -1.72086364
H       -1.86358000       0.53183300      -1.19418700      -0.42136116       0.96624995       0.27596784
H       -1.84246600       2.15236900      -1.99095400      -0.35429701      -0.38016848       0.44141782
H       -3.39118400       1.61680900      -1.17399300       1.52843713      -0.08160374       0.25138140
F       -1.78783300       2.17437700       0.00208200      -0.04148681       0.37029031       0.83345966
Br       1.04780800      -0.95361200       0.31660900      -0.06749763      -0.01292442      -0.08042411
6
Properties=species:S:1:pos:R:3:forces:R:3 charge=-1.0 dipole_moment="0.5299371090382108 -1.7707444238873578 2.9363006226854838" energy=-12.929866543926881 pbc="F F F"
C       -0.36099700      -1.47246600      -0.46166800       0.93113228      -2.13188485       1.62076493
H        0.41940400      -1.62718500      -1.18955200       0.16947685       0.55898461      -0.11126038
H       -1.24356400      -1.07448000      -0.85614600      -1.02507937       0.76395297      -0.62645087
H       -0.53376200      -2.45808400       0.04344800      -0.11112977       0.89528647      -0.64380634
I        0.28664700      -0.27929000       1.20076900       0.04914561       0.05825400      -0.31705561
Cl      -0.68637700       1.69393500      -3.46285300      -0.01330855      -0.14417565       0.07875032
6
Properties=species:S:1:pos:R:3:forces:R:3 charge=-1.0 dipole_moment="1.146123753271801 0.37431349989233303 0.7275604550321195" energy=-14.864296287846765 pbc="F F F"
C        2.34643400       0.92665700       1.61060600      -0.31751944      -0.40604921       1.45474005
H        2.40559400       1.56284700       0.72144900      -0.80780262      -1.13746127      -0.15815165
H        3.23932800       0.46757300       1.85520200       2.60759040      -1.04453696      -0.81359377
H        1.68805400       0.04960800       1.85875200      -0.63786452       1.57295732      -1.38967879
F        2.31599700       1.81665500       2.67621400      -0.91803559       1.00976742       0.86932912
Br      -1.20730200      -0.68542500      -1.09099900       0.07316332       0.00570734       0.03674827
5
Properties=species:S:1:pos:R:3:forces:R:3 charge=-0.0 dipole_moment="0.26577396223358357 -0.12737295458271655 0.08970082896267671" energy=-14.155748040375599 pbc="F F F"
C        0.53043800      -0.23079400       0.18482100       3.32192981      -1.86632536      -0.56065685
H        1.26426000       0.40711700      -0.56215500      -0.82717537      -1.76730548       2.82733026
H        0.64825400      -1.41673600      -0.17052400      -0.56365579       3.13052659       0.93281841
H        0.69013300      -0.24918500       1.42482700      -0.29255402       0.60400257      -3.64032342
F       -0.64280900       0.29373000      -0.20011900      -1.64037577      -0.10019641       0.44020632
6
Properties=species:S:1:pos:R:3:forces:R:3 charge=-1.0 dipole_moment="0.14256351558916217 0.09201703761331466 -1.764000589515932" energy=-13.097477330334767 pbc="F F F"
C       -0.00561600       0.10844200      -0.54687100      -1.21618897       1.14366328       1.03899778
H        0.93194500      -0.00220800      -0.04444000       0.47904232      -0.03378070      -0.02078994
H       -0.42191900       1.13744600      -0.32923600       0.35922788      -1.60632305      -0.03933685
H       -0.66345700      -0.71544900      -0.23736700       0.18547168       0.66396996      -0.26155372
I        0.24258500       0.08031700      -2.63299700       0.21769018      -0.15862936      -1.03094097
I       -0.23905400      -0.10051400       2.70643600      -0.02524464      -0.00887596       0.31295676
6
Properties=species:S:1:pos:R:3:forces:R:3 charge=-1.0 dipole_moment="-1.0554915724185319 0.06360710070977371 1.0245982068658148" energy=-13.220764718235687 pbc="F F F"
C       -1.17201200       0.36828500       1.30437100     -10.31851808      -3.39529830      -5.21488974
H       -0.42005900       0.95627400       1.29922900       6.01125507       3.09556782       1.55633874
H       -1.72137100       1.07853900       0.28484200       0.84289458      -1.56326426       3.12445416
H       -2.05994200       0.04200100       1.97403200       2.16310576       1.96488243       0.06927992
F       -1.06025200      -0.83902000       0.62997400       1.07698840      -0.38997981       0.52088651
Cl       1.22210100       0.19203800      -1.00318200       0.22420535       0.28796718      -0.05688103
6
Properties=species:S:1:pos:R:3:forces:R:3 charge=-1.0 dipole_moment="-0.36738657020605237 1.576196655841246 -0.49505586402668467" energy=-15.33305161878771 pbc="F F F"
C       -0.52381300       1.59644600      -0.75225100      -0.76763016      -3.86526206      -1.10057776
H        0.32077300       1.32207900      -1.39141200      -0.22331884       0.25405227      -0.26347073
H       -1.29425600       2.15008500      -1.32337200       0.40471944      -0.01303652       0.53927196
H       -0.91144600       0.52231700      -0.41856000       0.60131577       2.36206288      -0.38245111
F       -0.01779000       2.27870600       0.28539500       0.06718190       1.16504921       1.28790681
Cl       0.30517100      -2.00479400       0.29872300      -0.08169270       0.09818170      -0.07910462
5
Properties=species:S:1:pos:R:3:forces:R:3 charge=-0.0 dipole_moment="0.16952191940412653 -0.02202435550366707 0.15794352203698966" energy=-13.494394905564624 pbc="F F F"
C        0.47343800       0.01351800       0.26197900      10.59739177       2.21053079      -2.63526215
H        1.07739000       0.86546000      -0.61846400      -1.02926512      -2.07104998       2.93179676
H        1.33029300      -0.86720200       0.17433300      -3.07037614       1.29031182       0.05181853
H        0.65941900       0.45107500       1.22669600      -1.08744251       0.20774926       0.57007326
F       -0.65641400      -0.05893800      -0.26160400      -5.40961791      -1.63732335      -0.91832921
6
Properties=species:S:1:pos:R:3:forces:R:3 charge=-1.0 dipole_moment="-0.438370401231086 0.20985580639330248 1.2474294384621427" energy=-15.275212147718577 pbc="F F F"
C       -0.35912400       0.28607400       1.23045900      -4.90099351       2.82008746      -0.16907216
H        0.62842700       0.13345500       1.20075100       3.41299161      -1.81687738       0.16258938
H       -0.95642000       0.05117600       0.38212600       0.45083269      -1.20311902      -0.82157448
H       -0.45044900       1.38565000       1.15576100      -0.01867392      -0.08566042       0.83693528
F       -1.09728700      -0.18521900       2.35145600       1.02702055       0.21280868      -0.00971671
Cl       0.75345700      -0.09528000      -1.84026500       0.02855159       0.07359835       0.00012238
6
Properties=species:S:1:pos:R:3:forces:R:3 charge=-1.0 dipole_moment="2.297354066625543 -0.21567675570950473 1.7297903412074007" energy=-13.590305303667684 pbc="F F F"
C        0.00588000      -0.75075900      -0.79593900       1.01604862      -1.76172156       1.39069695
H        0.79497000      -1.60377300      -0.88755500      -1.81838714       1.63133165      -0.27176768
H       -0.14223500      -0.09657900      -1.62961200       0.25910345       0.42493499      -0.31487994
H       -0.99098400      -1.07058400      -0.47900900       0.40430909      -0.13141372      -0.26457836
Br       0.73446300       0.20482100       0.83098800      -0.22461827      -0.04544579      -0.69697984
F       -2.82258300       0.01186200      -2.36808500       0.36342597      -0.11730762       0.15785598
6
Properties=species:S:1:pos:R:3:forces:R:3 charge=-1.0 dipole_moment="-0.2826404274658849 -0.305547979733983 -1.16484604298155" energy=-12.98920343563544 pbc="F F F"
C       -0.72472700      -0.88110300      -2.73267300      -0.46865301      -0.22750254      -0.12990654
H       -1.67425200      -0.94306700      -2.12340500       0.07733725      -0.48280282      -2.20097811
H       -0.20104400      -1.70729200      -3.26057400      -1.61821903       0.22813554       0.07595965
H       -0.17786900      -0.86425500      -1.82366600       1.90857733       1.85444532       0.53865541
Cl      -0.73635200       0.54143500      -3.98870100       0.14199792      -1.30076438       1.83422668
I        0.35697200      -0.00760700       1.72474700      -0.04109703      -0.07095680      -0.11847593
6
Properties=species:S:1:pos:R:3:forces:R:3 charge=-1.0 dipole_moment="-0.19452554260326801 -1.913005779289288 -2.2668708134110127" energy=-12.310387612935056 pbc="F F F"
C        0.90438300      -1.64996700      -0.09638500      -5.77842212       1.94941571       1.99393230
H        1.63025600      -2.26756800      -0.44743900       1.47532636      -2.19964628      -0.96583395
H       -0.05185800      -1.99489400       0.56146900       3.03397652       0.06149976      -1.55524448
H        1.29861200      -0.79771800       0.44002500      -0.07903469       0.57233326      -0.42262717
Br       0.45246400       1.97021300       2.83984000       0.04847558      -0.13345723      -0.06680395
I       -0.45546300      -1.01882000      -1.87490800       1.29920681      -0.25013750       1.01648057
6
Properties=species:S:1:pos:R:3:forces:R:3 charge=-1.0 dipole_moment="-0.6021666232169118 -1.409886842105242 -2.84676172194924" energy=-14.81781142406554 pbc="F F F"
C       -0.48256100      -0.90909300      -1.83424900      -1.32012170      -1.48916404      -1.52039472
H        0.10448000      -1.83390700      -2.09995400      -0.21097600       1.09638892       0.01375232
H       -0.41310900      -0.10502300      -2.59690600      -0.30548307      -0.95530528      -0.06446887
H       -1.58349600      -1.34167200      -1.76300500       1.96853134       1.39571009       0.32505637
F        0.01833100      -0.35106100      -0.72707400      -0.13126511      -0.06342501       1.21893902
F        0.51361200       1.32163500       2.66767000       0.00015427       0.01563951       0.02813713
6
Properties=species:S:1:pos:R:3:forces:R:3 charge=-1.0 dipole_moment="-0.49134844848947445 -0.8246904028539019 2.1031047545261896" energy=-12.334744624770495 pbc="F F F"
C       -0.78684200       0.08351100      -0.80413400      -3.18691757      -2.52281341      -1.05406239
H       -1.43615900       0.89837900      -0.97575800      -0.80186852       1.22592265       1.23657370
H       -1.24773800      -0.65472700      -1.58415000       1.21672890       0.25723426       2.24023835
H        0.08382400       0.39012100      -1.16926300       3.29885879       0.91619005      -1.71732889
Cl       0.52622400       1.17246300      -3.06352100       0.32164811       0.43437300      -0.95512427
I       -0.03065500      -0.39748500       1.14403500      -0.84852479      -0.31133696       0.25052883
5
Properties=species:S:1:pos:R:3:forces:R:3 charge=-0.0 dipole_moment="0.25639165029028665 0.09410887512667351 0.20449524125029078" energy=-12.260004109927065 pbc="F F F"
C        1.21900300       0.50611800       1.23301100       2.52915118      -3.11213909      -0.20174882
H        1.68502300      -0.31163100       1.93542600      -1.70036886       1.09368463      -1.36635837
H        0.95055000       1.33166100       1.83765600      -0.21831239       1.03184857      -0.11133649
H        1.98563800       0.55543300       0.43891500       0.12239480       1.28574297       1.20881607
I       -0.22519300      -0.08702200      -0.21905800      -0.73320771      -0.29971557       0.47022652
6
Properties=species:S:1:pos:R:3:forces:R:3 charge=-1.0 dipole_moment="0.1002790814018479 0.06045108782597096 -1.1879774372097163" energy=-12.970006055913737 pbc="F F F"
C        0.07000000       0.09493800      -0.28364300      -0.91076657       0.23928230      -0.04929062
H        1.08886200      -0.14352700       0.05861300      -0.80649084       0.34045265      -0.37830855
H       -0.34557700       1.10994500      -0.06064800       0.88378233      -1.09282948      -0.34041254
H       -0.69462700      -0.67004600      -0.04113600       0.88867976       0.50089413      -0.49199605
I        0.20728300       0.07102600      -2.64076700      -0.02157978       0.00387105       0.74705876
I       -0.21612500      -0.08736600       2.67369200      -0.03359558       0.00841625       0.51244301
6
Properties=species:S:1:pos:R:3:forces:R:3 charge=-1.0 dipole_moment="-0.17295627950068584 0.2170367411406538 -2.4766498891087836" energy=-14.02264551649232 pbc="F F F"
C        0.03483900       0.23929300       0.80979200      -0.13020170       0.32607761       0.34821070
H        0.99104600      -0.09708500       1.15614300       0.19379229      -0.04702754       0.12495768
H       -0.73770800      -0.34401100       1.25535000      -0.23180759      -0.38726730       0.26516817
H       -0.14336300       1.28359800       1.03602400       0.17668108      -0.02548992      -0.19583271
F        0.23179700      -0.20166900       3.51501600      -0.02322015       0.05403534      -0.31658458
Br      -0.06872000      -0.01323600      -1.14118300       0.01506564       0.07995669      -0.22533767
6
Properties=species:S:1:pos:R:3:forces:R:3 charge=-1.0 dipole_moment="-0.04409951201954826 -0.19061439383999065 1.739144606758538" energy=-12.90387944300621 pbc="F F F"
C        0.07514700      -0.55953700       0.55560700       1.95636643       4.45869997      -0.21554228
H       -0.81796000      -0.90968100       0.22119100      -2.32444044      -1.23581523      -0.80536007
H        0.91263400      -1.19370900       0.45257200       0.62858232      -0.60829529      -0.18331093
H        0.24907500       0.48454400       0.04156700      -0.17888349      -2.48739029       0.97541645
I        0.10602300       0.14213700      -2.70201800       0.00345659       0.00361703      -0.32302417
I       -0.12101600      -0.04824900       2.62562200      -0.08511792      -0.13058274       0.55244372
6
Properties=species:S:1:pos:R:3:forces:R:3 charge=-1.0 dipole_moment="-0.06154860136068036 0.33805956919660424 0.21894707087078927" energy=-13.993364793509002 pbc="F F F"
C       -0.44973100       1.30502300       1.23920000      -1.59907048      -3.43854272      -2.38440988
H       -0.69016700       2.35622000       1.24463400       0.32360524       0.31393943      -0.51640508
H        0.51393500       0.88504400       1.06321100       1.39788987       1.27482812       0.24014877
H       -0.83035500       0.43208000       0.32354500      -0.14703420       3.41705241       2.26917766
F       -0.85281000       0.78860700       2.44317400      -0.70699480      -0.22552227       1.97924822
Br       0.32515000      -0.53145500      -0.91586200       0.73097600      -1.34167424      -1.58704954
6
Properties=species:S:1:pos:R:3:forces:R:3 charge=-1.0 dipole_moment="-0.3340907401173755 -0.03312649338129646 -1.5226439221321852" energy=-14.254241555660384 pbc="F F F"
C       -0.04659000       0.06873600       0.27913400      -4.81835979      -1.44168039      -0.66978888
H       -0.45196500       1.02956300       0.41356100      -0.35765076       0.93303747       0.44867708
H        0.92281400       0.04087700       0.50647200       3.45204153      -0.58201501       0.94919891
H       -0.74457500      -0.71550500       0.72346600       1.61363526       1.19867050      -0.64418480
F        0.48458700       0.12094100       2.65390500      -0.02530583       0.04104818      -0.08882956
Cl      -0.22400100      -0.10916600      -1.60020300       0.13525032      -0.14939910       0.00436471
6
Properties=species:S:1:pos:R:3:forces:R:3 charge=-1.0 dipole_moment="-1.5029532381271047 -1.8912370163783232 1.5126795152572683" energy=-13.5295109017522 pbc="F F F"
C       -1.56255500      -1.16523600       0.36575900       2.01121269      -0.28127151      -1.51802416
H       -1.52717900      -0.06543300       0.22516300      -0.64526570      -0.81544446       0.14167962
H       -2.56438700      -1.67892600       0.39259200       1.28824362       0.75348241       0.19638704
H       -0.84917700      -1.56651100      -0.45243700      -1.81681568       0.52342008       1.03421758
Cl      -0.51926600      -1.47086800       1.82277000      -0.74121516      -0.11315220       0.11746600
Cl       1.36138700       2.07688500      -1.96158600      -0.09524292      -0.06714745       0.02896759
6
Properties=species:S:1:pos:R:3:forces:R:3 charge=-1.0 dipole_moment="0.148016157566812 -0.09533180366028655 0.2189216703646822" energy=-15.046334048439098 pbc="F F F"
C        0.65705700      -0.18232100       2.16000000      -0.40824545      -0.28647491       1.80034262
H        0.58723000      -1.32206400       2.24915300       0.03868379       1.79795304      -0.97247202
H       -0.29291800       0.32264700       1.71358400       2.29948685      -1.07429029       0.82063243
H        1.67715700       0.17078700       1.76723400      -2.00890898      -0.48313809       0.43819263
F        0.65916600       0.12566200       3.64490900       0.14406458       0.08797133      -1.57290487
I       -0.22351500       0.01493600      -0.97158800      -0.06508851      -0.04197686      -0.51316755
6
Properties=species:S:1:pos:R:3:forces:R:3 charge=-1.0 dipole_moment="-0.8402540337937952 -1.4540043461499492 0.06271279122392082" energy=-13.768127719653096 pbc="F F F"
C       -0.91500800      -0.53761800      -0.80125300       3.55213047       1.20044661      -0.78859494
H       -1.46368100       0.35988200      -0.65510500      -0.49810911       0.51815754      -0.12746605
H       -1.44108700      -1.39277900      -1.11601100      -0.87883707      -1.17720692       0.35136647
H       -0.09748900      -0.34029700      -1.57138800      -1.30798918       0.15746363       1.06021607
Cl       0.06010900      -0.71548700       0.71533200      -0.72119809      -0.75585862      -0.22922363
F        0.83005000       1.86246400      -0.44562400      -0.14634823       0.05726978      -0.26562686
6
Properties=species:S:1:pos:R:3:forces:R:3 charge=-1.0 dipole_moment="-0.002078078905884204 -0.001049887585758661 2.568842613556005" energy=-13.365845753500478 pbc="F F F"
C       -0.00131500      -0.00529400      -0.81350600      -0.48319157       0.28076757      -1.14227129
H       -0.91158000      -0.51749600      -1.17543200       0.73381604       0.29869485       0.45270291
H        0.89591000      -0.51276400      -1.16266900      -0.28599154       0.09057329       0.23914501
H       -0.01042700       1.03205800      -1.19077100       0.04482770      -0.69228552       0.49653662
Cl       0.00111700       0.00123300      -3.71444900      -0.00016506       0.00167533      -0.23315074
I        0.00028300       0.00017000       1.35010500      -0.00931356       0.02063979       0.18820271
6
Properties=species:S:1:pos:R:3:forces:R:3 charge=-1.0 dipole_moment="-0.15822927773069415 0.022807537775301555 0.5132648518421864" energy=-14.908303423058026 pbc="F F F"
C       -0.39035100       0.04542600       1.51428900       1.96435793       0.40874476       0.46483749
H       -0.13536300      -0.90251300       1.13634100       0.78083638      -0.48022760      -0.83114361
H       -1.33718200       0.27542500       1.19789200      -2.33581140       0.78880165      -0.78328252
H        0.29248200       0.88442000       1.40249100       0.01583800      -0.50243988      -0.83682472
F       -0.38939800      -0.14608800       2.85388500      -0.68065436      -0.33878452       3.84777855
Br       0.20076400       0.02242600      -1.10021200       0.25539232       0.12357134      -1.86001124
6
Properties=species:S:1:pos:R:3:forces:R:3 charge=-1.0 dipole_moment="3.2841848959734166 -0.6804372244314095 0.8404392458174925" energy=-13.258004874277171 pbc="F F F"
C        0.22461600      -0.80134500      -0.91935400      -2.98010059      -0.10017996      -0.99883406
H        0.97840600      -1.41587900      -1.39506300      -0.24050718      -0.39253961       0.27207621
H       -0.15249400      -0.05379000      -1.63639000       0.35738902      -0.20441917       0.34728767
H       -0.74908100      -1.25765000      -0.53706700       1.61650256      -0.04971485      -0.91990581
Br       0.91010700       0.07012000       0.57322300       1.01760825       0.86356163       1.31382970
F       -3.69758600       0.56457700      -1.21979700       0.22931979      -0.11637174      -0.01413387
5
Properties=species:S:1:pos:R:3:forces:R:3 charge=0.0 dipole_moment="0.41664238496533473 -0.17615250985249145 0.08806567138203444" energy=-14.29823482204563 pbc="F F F"
C        0.61983500      -0.24399400       0.06475600      -1.68669625       4.23099225       4.99358922
H        1.53135600       0.40647600       0.07205000      -1.54346060       0.47263153      -1.01099178
H        0.89975000      -1.13732900      -0.26247100      -0.01829700      -3.75941745      -2.73680480
H        0.45446100      -0.39500300       1.13322100       0.71142995      -0.33874698       0.18216473
F       -0.73384200       0.28775800      -0.14792600       2.53565350      -0.60479036      -1.42791933
6
Properties=species:S:1:pos:R:3:forces:R:3 charge=-1.0 dipole_moment="-0.16711416309606106 0.1595204701244699 -0.09841108584855754" energy=-13.15246949554742 pbc="F F F"
C       -0.12657200      -0.03147000      -0.07993500      -0.24075298       0.05697308       1.14365660
H        0.40281600       0.45862100       0.85786500      -1.25434362      -1.30286343      -2.86636115
H        0.37486000      -0.27915300      -1.08484400      -0.94161210       0.89890144       2.23741476
H       -1.14133400      -0.55921100       0.13949300       2.29502907       1.30137733      -0.56912144
Cl       1.00478000      -1.89855800       0.67685800       0.30635828      -0.87614975       0.23673177
Cl      -0.93871600       1.93200300      -0.64349900      -0.16467866      -0.07774708      -0.18244241
6
Properties=species:S:1:pos:R:3:forces:R:3 charge=-1.0 dipole_moment="0.4236963171821507 -1.7314466658764658 2.0401845258357274" energy=-12.843220886291107 pbc="F F F"
C       -0.47250300      -1.99063200       0.98292400      -1.76063501       1.69555782       1.76605490
H       -0.73043500      -1.01305400       0.50473700       0.56852083      -1.59934610      -0.94931564
H       -1.45549500      -2.24860200       1.51397900       1.79136227       0.22601901      -0.05144006
H       -0.08900500      -2.90384100       0.53567700       0.25143591       0.77757724      -0.52373118
Br       0.92933200      -1.17399700       2.22680300      -0.82204602      -1.01529580      -0.31040417
Br      -0.78333300       1.69140500      -2.46828700      -0.02734317      -0.08417947       0.06917399
6
Properties=species:S:1:pos:R:3:forces:R:3 charge=-1.0 dipole_moment="-0.9159528337649527 0.9340983203151868 -1.997940309116416" energy=-13.40376823399345 pbc="F F F"
C       -0.03592000      -0.27508800       0.84931100       4.21480973       2.08678256      -1.57516230
H        0.91443100       0.21837300       1.20781300      -2.01400028      -0.73811544       0.29744221
H        0.07846200      -1.27396800       0.75091800       1.50156498      -3.06199126      -0.63922412
H       -0.95827200      -0.29067900       1.21837500      -3.42363186       1.55486807       2.44425334
F        1.20357300      -1.38354300       2.96542500      -0.16656945       0.12815150      -0.24972613
Br      -0.30432200       0.44139100      -0.99890900      -0.11235465       0.03098334      -0.27852146
6
Properties=species:S:1:pos:R:3:forces:R:3 charge=-1.0 dipole_moment="-0.40108457497475775 2.2590733872133546 -2.66394687101575" energy=-12.533723421199443 pbc="F F F"
C       -0.64001100       1.21130200      -1.21571800       0.20199874       4.64988515       0.91856421
H       -1.42114600       1.69685400      -0.52543000       0.64794221      -1.56477453      -1.83131773
H        0.28158600       1.44729800      -0.77199200       1.08334365       0.25290864       1.29019406
H       -0.44979100       0.28153500      -1.55716900      -1.14114154      -3.41739694      -0.54990039
Br       0.36563800      -2.56103400       3.17294000      -0.01235621       0.04184676      -0.04423532
Br      -0.21051200       2.25550500      -2.88297100      -0.77987735       0.03833515       0.21650233
6
Properties=species:S:1:pos:R:3:forces:R:3 charge=-1.0 dipole_moment="-0.003720115790263803 -0.001143022774817897 -1.0459557990841715" energy=-14.09552863053771 pbc="F F F"
C       -0.00533400      -0.00177500      -1.37151400      -0.10967453       0.57990568       0.60529995
H       -0.02422500       1.04501400      -1.00696000       0.08525984      -0.91963842      -0.27749610
H       -0.89967100      -0.52483300      -1.04445800       0.21954343       0.11407163       0.01826358
H        0.88684500      -0.52204700      -1.03651800      -0.19557818       0.17987850       0.04661205
Cl       0.00208400       0.00447300      -3.16908600       0.00225383       0.04724917      -0.48615245
Br       0.00096100      -0.00181500       1.86261400      -0.00180440      -0.00142388       0.09219822
6
Properties=species:S:1:pos:R:3:forces:R:3 charge=-1.0 dipole_moment="0.2744884525371489 -0.1468149252988321 -1.877720242888891" energy=-12.849756084785742 pbc="F F F"
C        0.15923100       0.20369000       0.09408300      -1.79680478       0.47226129       1.06282008
H        0.71568000      -0.55054700       0.67961100      -1.20641569      -0.00335015      -0.55995391
H       -1.01074800       0.37115600       0.29838200       3.38163546      -0.61465517      -0.05405436
H        0.76931400       1.09079200       0.24397100      -0.58351551       0.30117031      -0.21584413
Br      -0.37347900       0.31512300       2.96300900      -0.04957139       0.09049050       0.64382176
I        0.21966300      -0.24835600      -1.99041100       0.25466265      -0.24605408      -0.87723475
6
Properties=species:S:1:pos:R:3:forces:R:3 charge=-1.0 dipole_moment="0.214999408879983 0.050240084370931075 2.2407373968673174" energy=-12.993158665222687 pbc="F F F"
C        0.91156500       0.22127800      -0.06062500       1.71067950      -1.00881560      -1.84497543
H        1.77569900       0.93455900       0.16510700      -1.74343587      -0.55490838       0.04429291
H        0.15499500       0.56285000      -0.84989800       1.58422184      -0.55715141       0.89123338
H        1.54867800      -0.75242000      -0.51322200      -2.51449332       2.21394779       1.62463187
Cl      -0.00552300       0.00300100      -3.12774000      -0.02898868       0.04570445      -0.15034938
Br      -0.25299600      -0.06067700       1.56381000       0.99170079      -0.13979449      -0.56398283
6
Properties=species:S:1:pos:R:3:forces:R:3 charge=-1.0 dipole_moment="-0.1985573437705539 0.2069897826208887 2.2463456169448732" energy=-12.301845398837035 pbc="F F F"
C       -1.16158600       0.65477700       1.16262200       3.72294120      -1.13758108       0.17297406
H       -1.97899900       0.16621200       1.45504400      -3.70425031      -1.18833775       1.58254188
H       -0.72580800      -0.10762300       0.49639700      -0.10151539       2.05153685      -1.34359536
H       -1.19733400       1.72965700       1.20584500       0.33827081      -0.09913969      -0.94913617
I       -0.11118500      -0.11618800      -2.87682800      -0.05263717      -0.00362474       0.10682986
I        0.31631100       0.00832100       2.68563900      -0.20281120       0.37724308       0.43031837
6
Properties=species:S:1:pos:R:3:forces:R:3 charge=-1.0 dipole_moment="-0.28682463166981315 -0.3647158128243366 -1.1691620123109083" energy=-13.513580430613677 pbc="F F F"
C       -0.69784000      -0.89473200      -2.69497200       1.44997836       2.73128926       0.53385670
H       -1.73568900      -1.05898600      -2.54374600      -0.49118256      -0.05434078       0.77361929
H       -0.22766600      -1.71809700      -3.11609000       0.57683321      -1.41700499      -1.37865801
H        0.00158400      -0.61554400      -1.82794000      -1.83259505       0.19823515      -1.01695571
Cl      -0.73421700       0.52266600      -4.00032800       0.30325958      -1.39875890       1.20538673
I        0.35151900      -0.00234500       1.72949400      -0.00628789      -0.05847820      -0.11762695
6
Properties=species:S:1:pos:R:3:forces:R:3 charge=-1.0 dipole_moment="0.8194007474571059 1.9295251042714594 5.457815743237502" energy=-12.367196578678572 pbc="F F F"
C       -0.48085900       1.11738200      -0.61098200      -4.13656283      -1.65071932       0.38306355
H       -0.01403300       0.97073000      -1.56204000       1.08095613       0.10555511      -0.03405169
H       -0.62362700       2.14773000      -0.23819600      -0.08717172      -0.68067802      -0.82560700
H       -1.54057000       0.48220300      -0.78500600       2.63379457       2.32342537       0.58344917
F       -0.99324700      -1.79758900      -5.87349400       0.00059444       0.03661405       0.03835881
I        0.26420000       0.11081800       1.11533200       0.50859150      -0.13434015      -0.14451298
6
Properties=species:S:1:pos:R:3:forces:R:3 charge=-1.0 dipole_moment="-0.15475787522939533 0.15176802398970965 3.098491321014459" energy=-13.161609901919018 pbc="F F F"
C        0.38391700       0.43923800       0.11455100       1.77597627      -0.11496329      -2.56935758
H        1.51269000       0.72016500      -0.05920100      -1.90141475      -1.33512101       1.20469408
H       -0.04035500       1.35327300      -0.31117900      -0.85338314      -0.40616594       0.61189226
H        0.08980900      -0.44288100      -0.51377000       0.64178802       1.28487856       0.23231667
Cl       0.29345000      -0.05230100      -3.80408900       0.01161419       0.02969933       0.20112405
Br      -0.25298000      -0.09648200       1.85332500       0.32545746       0.54205389       0.31845789
6
Properties=species:S:1:pos:R:3:forces:R:3 charge=-1.0 dipole_moment="-0.1253774273216803 -0.06866285977950065 -0.8879614760349677" energy=-12.839806775688022 pbc="F F F"
C       -0.52983200      -0.37320500      -2.17363400      -0.82467832      -0.41998973      -0.46264897
H       -0.94219000      -0.35411900      -3.19233000       0.61367301       0.80826233      -0.18107407
H        0.04170800      -1.31925900      -2.15547600      -0.38716857       0.70032947       0.70933142
H       -1.49760000      -0.40564900      -1.53296400       2.58476877       0.54048912      -0.36054634
Cl       0.75230200       0.99944000      -1.89801100      -1.83044201      -1.28537221      -1.03259470
I       -0.13607700      -0.23909900       0.98469400      -0.15563094      -0.34304072       1.32788952
6
Properties=species:S:1:pos:R:3:forces:R:3 charge=-1.0 dipole_moment="-1.0105485519253448 0.2303296726700175 -0.8945052814208001" energy=-14.976182660848949 pbc="F F F"
C       -2.12365000       0.53954000      -1.84674100       3.68733296      -0.52462438      -0.80463142
H       -1.32198800      -0.17849500      -2.21066600      -0.64895420       0.90461238       0.58146119
H       -2.30359200       1.20521400      -2.68728300      -0.42789022       0.38451982       0.32677952
H       -2.89876100      -0.06591400      -1.56071200      -2.42237428      -1.13578439       0.39844389
F       -1.66397400       1.17484800      -0.71837000      -0.28941779       0.50066324      -0.48875903
Br       0.97834300      -0.42204800       0.68584100       0.10184757      -0.12921646      -0.01271925
6
Properties=species:S:1:pos:R:3:forces:R:3 charge=-1.0 dipole_moment="0.1772902408552037 -0.10502050920849991 -1.8714352051590244" energy=-13.126912277362054 pbc="F F F"
C        0.65854300      -0.43330200      -2.46697100      -1.61672213      -4.40831045       2.18868361
H        0.10380600      -1.26821100      -1.82955000       0.49633710       2.05948053      -1.24896745
H        1.51188300      -1.06810100      -2.72517500      -0.08021277       0.88308710      -1.72796143
H        0.94957200       0.24977400      -1.77398600       1.12125457       1.76422839       2.08043965
Cl      -0.47939500       0.44527500      -3.44964300       0.04200874      -0.27602954      -1.19862679
Br       0.04666300      -0.08238100       2.27927100       0.03635077      -0.02189809      -0.09418723
6
Properties=species:S:1:pos:R:3:forces:R:3 charge=-1.0 dipole_moment="-0.30800547869984146 -0.27572090626055207 -1.265919419376454" energy=-13.308177535768998 pbc="F F F"
C       -0.82840700      -0.86696700      -2.85605300      -0.96265298      -0.10695687       1.58328750
H       -1.48956800      -0.62328400      -1.98273400      -0.27649337      -0.89608608      -1.38888946
H       -0.81778100      -1.84505500      -3.34501000      -1.45744999       0.52182034      -0.58443339
H        0.02530400      -1.03927200      -2.29622400       2.52324329       0.78787143       0.87247873
Cl      -0.76381600       0.58274600      -3.85428400       0.20721962      -0.25662748      -0.39165412
I        0.38183700      -0.02259000       1.70345500      -0.03425687      -0.04870081      -0.09168503
6
Properties=species:S:1:pos:R:3:forces:R:3 charge=-1.0 dipole_moment="-0.09935143375172949 0.05123070410910658 0.2374725066582082" energy=-14.908541349419336 pbc="F F F"
C       -0.36029800       0.36252000       2.23422600      -0.24565247       2.55733972       3.25300676
H        0.33053500      -0.47776600       2.11544700      -0.35992567       0.80215442      -0.84192579
H       -1.44916100       0.13291800       2.16949500       1.23208147       0.16827306      -0.89780615
H       -0.06455500       1.49080300       1.99812600      -0.56236869      -3.21369922      -0.51753174
F       -0.29122000       0.52925600       3.76351300      -0.03921241      -0.29580184      -0.85446712
I        0.11256500      -0.15253500      -1.01056700      -0.02502044      -0.01834122      -0.14100702
6
Properties=species:S:1:pos:R:3:forces:R:3 charge=-1.0 dipole_moment="-0.23072602640072978 -4.042161398714325 1.4541038314655355" energy=-10.996774544438503 pbc="F F F"
C       -1.43194700      -0.92684400       1.48680200      -2.02746875      -4.56257151      -1.24982414
H       -1.17321700      -0.66472300       2.54374900      -0.83256646       0.71185779      -1.64245270
H       -2.20188000      -1.92165500       1.46825100       2.96354474       1.10984042       1.10973552
H       -2.08029300      -0.73769600       0.62617000      -0.16415158       3.09909743       1.11034075
Cl      -0.04769900       4.21040800      -1.34502700      -0.01479001      -0.00697026       0.00767526
I        0.28033900      -1.18286400       0.17559400       0.07562283      -0.35153051       0.66386506
6
Properties=species:S:1:pos:R:3:forces:R:3 charge=-1.0 dipole_moment="0.12450904751914506 0.1057306650250766 1.5452995860480552" energy=-11.736487663979034 pbc="F F F"
C        1.61159500       0.18968000       2.39407400       1.16180242      -3.99751447      -5.94733795
H        2.25386200       0.63502100       1.60840300      -0.67039257      -0.10018253       0.57269270
H        2.12971500      -0.70262500       2.78351300      -0.88014010      -0.27100252      -0.70922035
H        1.44002100       0.72480000       3.15452100      -1.19829769       4.67303125       5.50362825
I        0.15352200      -0.08591800      -1.85445500       0.17102054      -0.02784711      -1.11321473
I       -0.44584600       0.05204500       1.44104200       1.41591639      -0.27689755       1.69379970
6
Properties=species:S:1:pos:R:3:forces:R:3 charge=-1.0 dipole_moment="-0.8863977573777515 1.3829734183531754 -1.5069278881556498" energy=-12.658764226034839 pbc="F F F"
C       -0.55789800      -0.84088100      -1.66035000       0.90229118      -0.20810511      -0.42090865
H       -0.08772600      -0.51919700      -2.65540300      -0.97471402      -0.09721496       1.67374869
H       -1.60218600      -0.63918200      -1.50741200      -0.47332162      -0.40529639      -1.13185832
H       -0.32675000      -1.92382400      -1.50055500       0.04376172       1.20665223       0.48329595
I       -0.07041700       0.48189500       0.01235100       0.58002755      -0.47869162      -0.44622784
F        1.01068400      -1.93477100       1.66342700      -0.07708374      -0.01721971      -0.15876769
6
Properties=species:S:1:pos:R:3:forces:R:3 charge=-1.0 dipole_moment="0.7052926780115931 1.0180258259106119 -1.076023648188409" energy=-12.410015621975914 pbc="F F F"
C        1.32049100       1.77343600      -1.24634100       0.97866838      -7.73881952      -1.11574881
H        2.26561700       1.38643700      -0.84376100      -0.27808540       0.17844537      -1.00999059
H        1.16066200       2.69344400      -1.36596000      -0.75725319       7.34576775      -0.92877458
H        0.52561500       1.26485200      -0.86428600      -1.68538139      -0.63153292       2.97643677
Cl       0.52918900       0.95469100      -2.87288400       1.66872887       0.73701500       0.13681355
Br      -0.59631600      -0.92043100       1.69688800       0.07285530       0.10844708      -0.05993962
5
Properties=species:S:1:pos:R:3:forces:R:3 charge=0.0 dipole_moment="-0.16793967954454062 -0.023500759921140184 -0.3338949445494669" energy=-13.409069771607161 pbc="F F F"
C       -0.48577900      -0.09538500      -0.95921200      -0.61670331       3.95268009      -0.15836248
H       -1.53842900      -0.11075200      -0.84300400      -0.97609316       0.01937018       0.21631978
H       -0.20492000      -0.87936700      -1.52117200       1.30708055      -2.91692344      -1.56770559
H       -0.19912500       0.83751100      -1.48658300      -0.44434682      -0.68071093      -0.00521265
Cl       0.28571500       0.04264200       0.56506100       0.73057850      -0.37403332       1.51588089
6
Properties=species:S:1:pos:R:3:forces:R:3 charge=-1.0 dipole_moment="0.9095667231878681 -4.322753381198117 0.7331655000464118" energy=-11.149529256604572 pbc="F F F"
C       -0.71356800      -1.11369500       1.60868700       3.68105073       3.02263230       1.33645284
H       -0.24998600      -1.59347100       2.38154800       1.37275013      -4.04108696       1.20676021
H       -1.68909700      -1.46127500       1.56723300      -1.89598046       0.55268026      -0.26216667
H       -0.19760600      -0.29321400       2.34057200      -2.74370821       0.53904519      -2.67584651
Cl      -1.03832200       4.43375600      -0.42226600      -0.00311309      -0.00032653       0.01906113
I        0.45414300      -1.23290000      -0.16533900      -0.41045917      -0.07281365       0.37502988
6
Properties=species:S:1:pos:R:3:forces:R:3 charge=-1.0 dipole_moment="0.3133522852353785 0.17095069787264888 -1.0325041143916387" energy=-13.474967859657431 pbc="F F F"
C        0.81562400       0.18753400      -1.48096900      -0.04647269      -3.41192820       0.68339927
H        1.04013700       0.97400700      -0.76325300       0.35575072       0.53536285      -0.85571256
H        0.07526400      -0.43758200      -0.75599700       1.76578545       0.98548746      -2.08128091
H        1.74588000      -0.43833800      -1.90965600      -2.10632809       1.52304552       1.67742228
Cl      -0.02020900       0.64934900      -3.02687900       0.02372511       0.37952777       0.55394782
Br      -0.21175600      -0.35034900       1.82204700       0.00692861      -0.01105060       0.02112213
6
Properties=species:S:1:pos:R:3:forces:R:3 charge=-1.0 dipole_moment="-2.981521990391428 -0.6343617647076158 -1.6833285821198956" energy=-13.054266553237898 pbc="F F F"
C       -0.32342400      -0.76949900      -0.67717900       2.26949802      -0.67700905       6.40479329
H       -0.47173100      -1.71649900      -0.08499100      -0.46608653      -0.01224668      -2.24203401
H        0.36704600      -0.45026300       0.27110300      -0.83966219       0.51082887      -2.79464742
H        0.16942800      -0.66075500      -1.58868600       0.84957482      -0.64568993      -1.18059101
F        3.47792800       0.45917900       1.82472700      -0.15432328      -0.07686519      -0.07139800
Cl      -1.73091500       0.19481800      -0.64452300      -1.65972435       0.90142986      -0.11614394
6
Properties=species:S:1:pos:R:3:forces:R:3 charge=-1.0 dipole_moment="-0.25165022248363467 0.36330661391260516 -0.6400027937722264" energy=-14.903110963844728 pbc="F F F"
C       -0.56130600       1.07301300      -1.79261600      -2.24174039       0.34441883      -0.91490142
H       -1.52502600       1.66520700      -1.90562500       0.89815942      -0.27874206      -0.33276865
H       -0.71671000       0.63741300      -0.73719000       1.25670081      -0.36029797      -2.05710945
H       -0.37395600       0.55811700      -2.79482800      -1.04975116      -0.84115343       1.97012491
F        0.48778100       1.94252600      -1.88345700       1.12211846       1.39330096       0.89717057
Br       0.04552800      -0.76518700       0.94698400       0.01507335      -0.25748469       0.43679806
6
Properties=species:S:1:pos:R:3:forces:R:3 charge=-1.0 dipole_moment="0.13533548407007065 0.08261144187275293 0.2839263280875551" energy=-12.986969971382212 pbc="F F F"
C        0.58549200       0.20575700      -1.27258100       1.27613321       0.29029505      -2.07353109
H       -0.27871700       0.75981500      -1.37928100      -1.02628059       1.08467137       0.77438599
H        0.50465300      -0.79124300      -1.01805100      -0.04837737      -1.42507414       0.10785419
H        1.57707800       0.65593700      -1.24499800      -0.59865930       0.02685826       0.30445360
Cl       0.34133600      -0.05181900      -3.35064800       0.51971872      -0.14923918      -0.42082226
I       -0.20978700      -0.01845500       1.28752500      -0.12240457       0.17254418       1.30746159
5
Properties=species:S:1:pos:R:3:forces:R:3 charge=0.0 dipole_moment="-0.1598221011344913 -0.2174759582254218 -0.34856902859840216" energy=-13.002288957248245 pbc="F F F"
C       -0.56474300      -0.76465200      -1.28924100       0.79292313       0.79947225       0.50565684
H        0.04589300      -1.62696600      -1.47444000       0.22388037      -0.39547375       0.39395783
H       -0.56834800      -0.18650200      -2.21396500       0.04397924       0.52233404       0.59297562
H       -1.54143000      -0.99610600      -0.95248100      -0.80571386      -0.40109727      -0.03806004
Br       0.15578100       0.21135700       0.35360900      -0.25470687      -0.52491543      -1.45399854
6
Properties=species:S:1:pos:R:3:forces:R:3 charge=-1.0 dipole_moment="-0.1464868354282825 0.5574352736079502 0.4578599978961523" energy=-13.530092620734397 pbc="F F F"
C       -0.48446400       1.32177400       1.23384600       8.14978468       6.77564204       6.58544158
H       -0.33724500       2.47408400       1.28318100      -2.57999114      -1.01757946       0.38760926
H        0.77410400       1.49436200       1.23355300      -2.85529306      -2.37858479      -0.33216239
H       -0.80178700       0.99908900       0.39586400      -2.50562712      -2.78794918      -5.16034430
F       -0.84043800       0.74352300       2.43133100      -0.50752038       0.17210400      -0.53789899
Br       0.30959000      -0.55971100      -0.91993300       0.29957262      -0.76394114      -0.94240657
6
Properties=species:S:1:pos:R:3:forces:R:3 charge=-1.0 dipole_moment="-0.04161978761084611 0.011917070781897701 -1.5893572930679687" energy=-14.281335898329807 pbc="F F F"
C       -0.02690800       0.01724200       0.24729200       0.57157479       0.30971511       1.07292657
H       -0.00417900       1.11796100       0.55693400       0.28711357      -2.11589979      -0.33578661
H        0.87254900      -0.62946400       0.55610700      -1.90379148       1.49541336      -0.19342822
H       -1.01337200      -0.41604900       0.47952800       0.99950152       0.18989038       0.23009884
F        0.03676900      -0.00848600       2.67251000      -0.01817410       0.01027464       0.01718680
Cl      -0.00144000      -0.00585400      -1.59581800       0.06357979       0.11019029      -0.79176356
6
Properties=species:S:1:pos:R:3:forces:R:3 charge=-1.0 dipole_moment="1.8442354965360428 2.6251005011654684 1.7418587566715198" energy=-12.869337875581097 pbc="F F F"
C        0.34694900      -0.38625900      -0.64980900      -1.05930487      -3.22427776       2.20290284
H       -0.46907000      -0.19964100      -1.31073300      -0.36285519       0.34558766      -0.32491239
H        0.03677800      -1.25964800       0.04196400      -0.01601026       1.40464056      -1.38573780
H        1.18471300      -0.84839100      -1.13089000       0.89912821       0.83068698      -0.36356996
I        0.61692800       1.11216800       0.80771900       0.40384886       0.49745039      -0.19228305
Cl      -2.09007500      -3.19527500      -2.14768200       0.13491351       0.14596874       0.06393768
6
Properties=species:S:1:pos:R:3:forces:R:3 charge=-1.0 dipole_moment="-0.06316576691616345 -0.10945289752418266 -1.0911448869802707" energy=-13.918083360708192 pbc="F F F"
C       -0.34238800       0.15591000       1.74689100      -0.66164054       0.77600322       1.45995013
H        0.45536400       0.84261500       1.67471900       0.39439337       0.19672129       0.06643114
H       -0.19442600      -0.88406800       1.78449400       0.32323191      -0.67782049       0.20597263
H       -1.36458500       0.51052200       1.63601900       0.50551080      -0.05967377       0.15037458
F       -0.14952600       0.36465200       3.78815700      -0.40087512      -0.22358315      -1.77170207
I        0.08497600      -0.08842300      -0.93717000      -0.16081326      -0.01161779      -0.11049420
6
Properties=species:S:1:pos:R:3:forces:R:3 charge=-1.0 dipole_moment="0.3770668089188967 -0.8421807680174582 0.9047104639265238" energy=-14.384089156289562 pbc="F F F"
C        1.39588600      -2.66242100       3.24647000       5.37796660      -3.05644488      -3.29599458
H        1.19524500      -3.80048500       2.72171500       1.20675919       2.69380052       2.38801971
H        0.55264500      -2.21952400       3.03446900      -4.76562594       2.67079172      -0.07217704
H        2.17049800      -2.10439900       2.60681100      -1.10846385      -1.27387321       0.48772802
F        1.87374300      -2.48226900       4.51545500      -0.72083402      -1.00329698       0.46393760
I       -0.55014000       0.87621400      -1.29209300       0.01002936      -0.03165337       0.02834539
6
Properties=species:S:1:pos:R:3:forces:R:3 charge=-1.0 dipole_moment="2.037893188513986 1.1015881992307481 -1.0448868611188327" energy=-13.94921004598723 pbc="F F F"
C        0.45445800      -0.03898600      -1.19227600      -0.32445165       0.67209259      -1.00639876
H        0.81340300      -1.05126300      -1.19350300       0.00700677      -0.32350497       0.12680322
H        0.84344400       0.50173700      -2.07775900      -0.18769877      -0.35831205       0.50569901
H       -0.63489000      -0.00964300      -1.18922600       0.13638469      -0.25132895       0.29096765
Cl       1.04958900       0.79744600       0.24223900       0.23269411       0.18283630       0.31661904
F       -2.39908100      -1.41816600       0.83289700       0.13669168       0.07877758      -0.23222205
6
Properties=species:S:1:pos:R:3:forces:R:3 charge=-1.0 dipole_moment="-0.6468387049782901 0.7113083645412828 0.14417274348648682" energy=-15.307540869342239 pbc="F F F"
C       -2.07606200       2.64135300       0.96960700      -1.82394381      -1.14312386      -0.92189996
H       -1.56894900       1.65753500       0.83463500      -0.68421174       0.61541159       0.02957694
H       -1.91473400       3.23947300       0.04248400       0.32281282       0.03839994       1.02219716
H       -3.21527200       2.58300800       1.10843200       1.61110273      -0.43588275      -0.45050153
F       -1.62434200       3.19112200       2.13357600       0.64459567       0.86120701       0.30756721
I        0.63725300      -0.98204200      -0.50953500      -0.06934420       0.06389449       0.01340470
6
Properties=species:S:1:pos:R:3:forces:R:3 charge=-1.0 dipole_moment="-0.0219185200615543 0.005037767044567768 0.7473728497956298" energy=-15.378025721009548 pbc="F F F"
C       -0.02774600       0.12021600       2.05867200      -3.82307385       1.21007488       1.08289525
H        0.31356300       0.69480800       1.19849800       0.00303544      -0.32202864       0.24375140
H        0.26268100      -0.87722900       2.13245800       0.82461969      -1.57633267      -0.63292337
H       -1.19941400       0.11753000       2.18021100       2.12399414       0.01037389      -1.13931966
F        0.32842800       0.68190000       3.28725200       0.87783999       0.69768278       0.51433534
Br      -0.06189200      -0.19410000      -1.35567100      -0.00712041      -0.01949205      -0.06916885
6
Properties=species:S:1:pos:R:3:forces:R:3 charge=-1.0 dipole_moment="0.7641953933194543 0.3340378223963191 0.6683508169421313" energy=-14.997655730584494 pbc="F F F"
C        1.76138200       0.78413100       1.65637500       1.79817621       3.07058132      -4.16244612
H        2.83669900       0.48270400       1.35091600      -1.74034232      -0.46190386       1.29563143
H        0.93927300       0.08704200       1.44761900       0.45157677       0.13866680       0.41839051
H        1.70401600       1.71471100       0.95584300      -0.64124192      -2.12986757       0.12838547
F        1.71858600       1.48373400       2.82048600       0.04000843      -0.62637117       2.21945149
Br      -0.90044400      -0.58122400      -1.11648600       0.09231032       0.00881374       0.10151899
6
Properties=species:S:1:pos:R:3:forces:R:3 charge=-1.0 dipole_moment="0.003466639906403724 0.018717527114853624 -1.263459803701753" energy=-12.977157886473245 pbc="F F F"
C       -0.02697800       0.05443300       0.34228600      -1.01903779       1.01378194      -0.49094087
H        0.72361600       0.77368600       0.61420800      -0.10934183       0.11819311      -0.36001103
H        0.17362600      -0.91974900       0.64020300       0.68587884      -1.55254842      -0.16546130
H       -1.06318800       0.27374300       0.60202600       0.48511578       0.40122942      -0.58037259
Br      -0.03068300      -0.01819500       2.97189100      -0.01564054       0.00869290       1.04082018
I        0.02644700       0.00344500      -2.03634600      -0.02700893       0.01074207       0.55510687
6
Properties=species:S:1:pos:R:3:forces:R:3 charge=-1.0 dipole_moment="0.7965334126570106 3.039059428496034 2.3969240505652354" energy=-12.780949825972378 pbc="F F F"
C        0.03906700       0.37920300       0.25960100       3.74779606      -6.24860750       3.57639088
H       -0.40131700      -0.42150600       0.99607300      -0.00682422       1.69392259      -1.74628106
H        1.07560500      -0.36978700       0.00855500      -3.11527892       2.94045624      -0.27057469
H       -0.61646300       0.72339500      -0.44012700      -1.28405324       0.22511244      -2.33533061
F       -0.92219700      -3.45448600      -2.66664800       0.02357393       0.07925066       0.06894619
Cl       0.47103200       1.69900300       1.28692500       0.63491392       1.31065130       0.70769466
6
Properties=species:S:1:pos:R:3:forces:R:3 charge=-1.0 dipole_moment="-3.1941147013177664 2.192287518999724 -3.1258773000155586" energy=-12.149349652643549 pbc="F F F"
C       -0.37212500      -0.69777400       0.93164400       5.19188505      -0.22540709       0.67969380
H        0.83314700      -1.14761300       0.94905800      -3.85633210       0.09516836      -0.78369699
H       -1.24191500      -1.34394600       0.95705900       0.53301955      -0.11261021       0.36820771
H       -0.05866100      -0.09496100       1.80367400      -1.67732149       0.13393392      -0.22387625
F        3.40733400      -2.50281400       3.60271300      -0.12927611       0.07586812      -0.10858129
I       -0.52765700       0.55280200      -0.78724700      -0.06168231       0.03383058       0.06735160
6
Properties=species:S:1:pos:R:3:forces:R:3 charge=-1.0 dipole_moment="-1.0184227088185347 -1.5934319575893103 1.252943464996218" energy=-15.38023697577691 pbc="F F F"
C       -0.71697600      -1.08641300       0.33230100      -1.80917230       0.10426081       0.31190878
H        0.05980600      -1.76999600      -0.00685300      -0.35600628      -0.40562755       0.24458803
H       -0.86005900      -0.37071500      -0.50482200       0.12913984      -0.04697714       0.83031006
H       -1.74352300      -1.55524700       0.67850400       2.13382964       0.44652763      -1.15314962
F       -0.25519900      -0.45734200       1.48656800       0.07407554       0.11054459      -0.26716746
F        1.01582500       1.59227900      -1.72663900      -0.17138615      -0.20873503       0.03360432
6
Properties=species:S:1:pos:R:3:forces:R:3 charge=-1.0 dipole_moment="-1.4270321837275104 0.28746493609459545 -0.13894606017774777" energy=-15.167127664891055 pbc="F F F"
C       -1.72939800       0.16377500      -0.37674500      -0.16698802      -3.29465298      -1.00646612
H       -0.88481200      -0.11059200      -1.01590600      -0.06189417       0.29991406      -0.07619979
H       -2.49984100       0.71741400      -0.94786600       0.22762492      -0.10518949       0.61691260
H       -2.11703100      -0.91035300      -0.04305400       0.32442439       2.38281426      -0.35525192
F       -1.22337500       0.84603500       0.66090100      -0.43477923       0.84275163       0.97086817
Cl       1.58167300      -0.48784900      -0.09887100       0.11148356      -0.12408145      -0.14806984
6
Properties=species:S:1:pos:R:3:forces:R:3 charge=-1.0 dipole_moment="-0.1840309001633659 -1.7587643810174027 -2.381857317026062" energy=-12.321036354157961 pbc="F F F"
C        0.71914900      -1.56440300      -0.26676900      -0.79189006       4.80501885       3.08438917
H        0.52240000      -2.51306800       0.11214100      -0.62329922      -1.56974961       0.27653451
H        0.26015100      -0.66075800       0.55611400       1.94669342      -2.97668360      -1.98464599
H        1.78035800      -1.40097500      -0.41559800      -0.11185842       0.10505837      -0.10341492
Br       0.38647700       1.87227800       2.93771700      -0.00148404      -0.14035859      -0.11110406
I       -0.38499000      -0.97299100      -1.91456900      -0.41824550      -0.22321342      -1.16186772
6
Properties=species:S:1:pos:R:3:forces:R:3 charge=-1.0 dipole_moment="1.8233435802629823 -2.186935949869292 -0.22265660311684182" energy=-13.106858046374423 pbc="F F F"
C        0.26434700      -1.53371000      -1.23701600      -1.46744336      -0.32429224       1.74413059
H        0.97338700      -2.19382200      -1.65368100       1.04850726      -0.36874610      -0.45911833
H       -0.17238600      -0.85147900      -1.95057900       0.12490986       0.40306313       0.20188715
H       -0.51557700      -2.15548500      -0.76282400       0.17211943       0.39484434      -0.66604844
Br       0.98558300      -0.65095700       0.36830100       0.11482290      -0.03001712      -0.74628229
Cl      -2.13922900       2.18744400      -0.06478600       0.00631566      -0.07439179      -0.07495692
6
Properties=species:S:1:pos:R:3:forces:R:3 charge=-1.0 dipole_moment="0.7811872735506592 2.3384796027217227 -0.28301667246259576" energy=-12.843069489284117 pbc="F F F"
C        0.25507800       1.50635100      -1.48409100      -0.23222874      -0.23155871      -1.90020376
H        0.95238600       0.70456600      -1.79375000      -0.15614773       0.82417695       0.24037142
H       -0.07200000       2.14945200      -2.36082600       1.02693313      -0.34155205       1.26574853
H       -0.63555100       0.99970400      -1.20982100      -0.71248154      -0.51087464       0.67756184
I        0.96066400       2.52402500       0.22642600       0.05896723       0.16618275      -0.21847899
I       -0.99416000      -2.76726700       0.04280000       0.01524356       0.09368998      -0.06449613
6
Properties=species:S:1:pos:R:3:forces:R:3 charge=-1.0 dipole_moment="-0.1441055379807452 0.45026630492456116 0.5552550635004272" energy=-13.323667688148367 pbc="F F F"
C        0.12181200       0.09765900       0.19783700      -1.68072204       1.17602782      -1.76368383
H        0.44416500      -0.84043800       0.69512000      -0.42130202       1.37498134      -0.16137787
H        0.90585200       0.76443900      -0.30688300      -1.36914802      -1.32321731       1.28121628
H       -0.85691100       0.04062900      -0.43562300       2.45998438      -0.09898645       1.57834327
Cl       0.63193100      -1.35685800      -1.62936200       0.60526653      -1.10454446      -1.35390343
Cl      -0.70393000       1.32447000       1.56232500       0.40547945      -0.02381973       0.41982107
6
Properties=species:S:1:pos:R:3:forces:R:3 charge=-1.0 dipole_moment="-0.10304667821309678 1.0991592758342599 -0.22810712838564937" energy=-14.973247616634454 pbc="F F F"
C       -0.07891100       0.33424800      -0.10569000       2.73761212      -3.33629971      -6.22469110
H        1.04701100      -0.01626000      -0.38454200      -2.68624250       0.60379637       1.87083662
H       -0.63757900      -0.23706900       0.60662000       0.30310943       0.47029286       1.02087716
H       -0.52142700       0.00050900      -1.16440200       0.30750242       0.42941180       2.14570351
F       -0.05440200       1.67606500      -0.19609400      -0.58415982       3.09273857       0.95999086
F        0.11945300      -1.87080600       0.37125700      -0.07751208      -1.25867336       0.22738170
5
Properties=species:S:1:pos:R:3:forces:R:3 charge=-0.0 dipole_moment="-0.21630118481797006 -0.3008372442055437 0.14776215250574135" energy=-15.031414702255796 pbc="F F F"
C       -0.33268500      -0.48037400       0.26209300       1.00181602       1.38455098       2.66556826
H       -1.21464500      -0.04952500       0.83230100       1.51896724      -0.31967145      -0.06915497
H        0.47651500      -0.99257600       0.86798100      -1.68880558       0.21838849      -0.30179303
H       -0.81125300      -1.12187800      -0.40368700      -0.09504649      -1.06790726      -1.81270705
F        0.39394400       0.56069100      -0.31879500      -0.73709985      -0.21535922      -0.48232305
6
Properties=species:S:1:pos:R:3:forces:R:3 charge=-1.0 dipole_moment="-1.300616510718704 -0.9190162406369068 0.10281489859486981" energy=-12.539104011415523 pbc="F F F"
C       -2.51211700      -1.66439100      -0.63578800       1.99063821      -3.42384321       1.37164919
H       -2.63227700      -1.18271900      -1.57153200       0.33240355       0.85307152      -0.49252262
H       -3.39223000      -1.81036000      -0.08777700      -1.58299388       0.18132038       0.30402320
H       -2.09995200      -2.74371000      -0.74177000      -0.68529675       1.91993801      -0.43202353
Br      -1.28299300      -0.94683900       0.72007900      -0.67989794       0.02004329      -0.54026543
I        1.28494200       0.92193400      -0.35824500       0.62732865       0.45113865      -0.21365355
6
Properties=species:S:1:pos:R:3:forces:R:3 charge=-1.0 dipole_moment="-0.9137234101768471 2.5554692470906364 -0.5418515339340556" energy=-13.042951780229082 pbc="F F F"
C       -0.86193300      -0.00102700      -1.58355400       0.01696311      -0.57573535      -0.59420358
H       -0.50509900      -1.03952300      -1.58350500       0.06417731       0.32773752       0.52774827
H       -0.49251400       0.47443600      -2.50479100      -0.15760452       0.15078853       0.61921322
H       -1.95326500       0.00402800      -1.55296600       0.26821339       0.14769035       0.03108413
I       -0.14751600       1.00131100       0.16997600      -0.09031669      -0.14809041      -0.42817253
Cl       0.93769400      -3.08836900       0.36081600      -0.10139866       0.09793538      -0.15532447
6
Properties=species:S:1:pos:R:3:forces:R:3 charge=-1.0 dipole_moment="-0.5517307432780721 0.9689658067192383 0.2729707722972518" energy=-15.058897673707113 pbc="F F F"
C       -1.22859000       2.25675700       0.70626800       2.44154751      -4.80996308      -3.09346362
H       -0.69655300       2.28923400      -0.33063200      -0.68539805       0.10904666       1.76388437
H       -2.23634000       2.53370000       0.47171800      -0.71544396       0.50587384       0.93284155
H       -1.05632800       1.11001500       1.00296100      -1.05229501       2.41732155      -0.78175837
F       -0.52098300       2.96113000       1.59625500       0.08259412       1.70513929       1.14894021
Br       0.45856000      -1.31781900      -0.56422700      -0.07025077       0.07369451       0.03124919
6
Properties=species:S:1:pos:R:3:forces:R:3 charge=-1.0 dipole_moment="-0.030094307964765643 0.6396164944085149 1.1392656166228936" energy=-13.430337628409037 pbc="F F F"
C        0.30518700       0.31930800       0.34760100       0.84835355       0.37749608      -0.87646188
H        0.84719100       1.21585600       0.12133000       0.89856977       0.30699643      -0.21315424
H       -0.38899100       0.28887800      -0.53378900       0.38480213      -0.82780632       1.70874860
H        1.05484000      -0.53912300       0.44716700      -1.83721635       1.17898047      -0.01074361
Cl       0.28012100      -0.98356100      -1.99319400       0.24144769      -0.85004585      -1.67970902
Cl      -0.47683700       0.81406300       1.86847000      -0.53648848      -0.18525674       1.07228997
6
Properties=species:S:1:pos:R:3:forces:R:3 charge=-1.0 dipole_moment="-0.17114120166845184 1.0888085695956313 -0.28005645514670163" energy=-14.084586516738336 pbc="F F F"
C       -0.01081300       0.39059200       0.07390300      -2.01352925      -4.46679431      -3.51029604
H        0.45794000      -0.09800500      -0.96300100      -0.89917912      -0.44180297       3.86026178
H        0.75650500       0.37103700       0.91635200      -1.43164743       0.93478016      -1.23546401
H       -1.20530300       0.02105500       0.32764000       4.19970141       0.38312217      -0.11957328
F       -0.38537300       1.48001000      -0.73852900      -0.06186126       3.98136589       0.57647634
F        0.39156600      -1.77308100       0.65803900       0.20588162      -0.39214931       0.42982986
6
Properties=species:S:1:pos:R:3:forces:R:3 charge=-1.0 dipole_moment="1.5337719896931323 0.5585576584715561 4.889265631498869" energy=-11.956762930159174 pbc="F F F"
C       -0.78584700       0.39284700      -0.46616300      -0.03491507      -3.81482472      -5.43871612
H       -0.30683500       0.66776200      -1.47588800       0.35893528      -1.46906778       1.30341930
H       -1.28346000       1.26806800      -0.51226700      -2.83769386       2.43004851       1.50298937
H       -1.30352700      -0.65157800      -0.62845700       0.23660939       2.86931329      -0.02970910
F       -1.79573900      -0.50557300      -5.35119100       0.02535314       0.03686911       0.10929246
I        0.44850100       0.01714800       1.01083600       2.25204331      -0.05256107       2.55317248
5
Properties=species:S:1:pos:R:3:forces:R:3 charge=0.0 dipole_moment="0.028321564309376778 -0.014885754933160852 -0.3596076652107639" energy=-13.220849583637225 pbc="F F F"
C        0.09563400      -0.10457500      -1.06646900      -0.77335189       0.34885245      -2.07429317
H        0.22675100      -1.11000500      -1.53834800       0.33389634       0.77544426       1.04272999
H        0.91097900       0.59070100      -1.13025800       0.47469099      -0.15548953      -1.76686788
H       -0.82984300       0.31274700      -1.50848100       0.70824127      -0.07437482       0.05103537
Cl      -0.05186400       0.04905900       0.62211200      -0.74356206      -0.89432693       2.74820044
6
Properties=species:S:1:pos:R:3:forces:R:3 charge=-1.0 dipole_moment="-1.2288024006502953 2.7824613990936276 -1.892046657510486" energy=-11.054542332189468 pbc="F F F"
C       -1.33578300      -0.18234300      -0.63304000      -4.71718790       0.33608846       6.87253356
H       -1.39582000      -0.61716400      -1.57591000      -1.08181025      -0.13318778      -1.41888807
H       -2.12309100       0.46507200       0.12913500       0.45493720      -0.34638624      -4.03711101
H       -1.72027600      -0.85539700       0.23989800       2.81116419      -0.77454694      -1.65486599
F        0.99504900      -3.12936700       2.01823600      -0.10719341       0.04440913      -0.03936205
Br       0.12281200       0.86473900      -0.37597200       2.64169763       0.87523084       0.27924856
6
Properties=species:S:1:pos:R:3:forces:R:3 charge=-1.0 dipole_moment="-3.701198763340567 2.4116960323981247 -3.1026464204718063" energy=-12.354044577404556 pbc="F F F"
C        0.28498000      -1.28736000      -0.30583900      -0.33414111       0.91310627       2.03729139
H       -0.37058400      -1.87502900      -1.01171000       1.85236941       0.47593180       0.41964212
H       -0.06101000      -1.55952400       0.76690400       1.01637258       0.36670773      -1.89659599
H        1.45812400      -1.05798200      -0.32255900      -3.00485723      -1.07010144      -0.50768595
F        4.00442800      -2.89580400       3.25068000      -0.05553686       0.01870015      -0.06526180
I       -0.73162800       0.72224400      -0.50667400       0.52591611      -0.70471269       0.01266063
6
Properties=species:S:1:pos:R:3:forces:R:3 charge=-1.0 dipole_moment="0.6579524847545518 -1.1998299483719252 -1.1643591999478309" energy=-13.285078349664547 pbc="F F F"
C       -0.07633900      -0.97293300      -1.35046800       0.93824961       0.32593209       0.91437126
H       -0.11914600      -2.07197500      -1.17908400      -0.11839211       0.90197802      -0.50028375
H        0.60658400      -0.65860500      -2.15075300      -0.40067458      -0.57775623      -0.00089063
H       -1.03626700      -0.47974900      -1.46185300      -0.19487626      -0.37669595      -0.14124202
Cl       0.58534500      -0.19910100       0.14356500       0.46294619      -0.96837831      -0.70684928
F       -0.99377800       1.38140500       1.16154400      -0.68716491       0.69606556       0.43523638
6
Properties=species:S:1:pos:R:3:forces:R:3 charge=-1.0 dipole_moment="-0.438179897435283 1.491358965443651 -2.1219159460073125" energy=-13.443788704573159 pbc="F F F"
C        0.68401300       0.53963000       0.74351100      -1.58385212      -6.34279113      -0.22754110
H       -0.09155900       0.54913200       1.50643400       0.63968383       0.48628152       0.06731457
H        1.35026900       1.27232900       0.56120600       1.75581728       2.71296810      -0.21006172
H        1.20707900      -0.53092700       0.83514100      -1.22380714       2.52639855       0.30416615
F        0.79422400      -1.72179000       2.93757400       0.04921195       0.27071044      -0.29586766
Br      -0.39193900       0.31336600      -0.96577200       0.36260425       0.34647006       0.36122717
6
Properties=species:S:1:pos:R:3:forces:R:3 charge=-1.0 dipole_moment="0.8827787144347055 -1.0681600748394304 0.6398969583301136" energy=-14.948507349538104 pbc="F F F"
C        1.97903300      -2.19032900       1.33587500       1.34831540       2.47771060       1.66277779
H        1.14849400      -1.46642300       1.42122100      -0.40482537      -1.36231557      -0.63612542
H        2.28385200      -2.51437300       2.33797700      -1.20454907      -1.41793059      -0.33299902
H        2.09113600      -2.86618700       0.49598700      -0.72087979      -0.20119141       0.25375505
F        3.05097000      -1.27574800       1.23436500       0.96012661       0.57555074      -0.99742612
Br      -1.28161200       0.89916300      -0.66799200       0.02202561      -0.07249174       0.05021828
6
Properties=species:S:1:pos:R:3:forces:R:3 charge=-1.0 dipole_moment="-1.4265665077822143 1.99975538694865 -1.2920284937684634" energy=-12.790848389187012 pbc="F F F"
C       -1.31985900       0.28268300      -1.68809600      -1.30210650      -0.87831462       4.40871155
H       -1.03172900       0.57207500      -2.64155400       1.38235629       0.10838538      -1.42488234
H       -2.32488100       0.68685000      -1.52334600       0.21225487      -0.19647601      -0.02494227
H       -1.30426300      -0.77888600      -1.30213400       0.22354098       1.09559548      -1.41206796
Br      -0.29225100       1.08857100      -0.09896800      -0.44612860      -0.10495398      -1.48210996
Cl       1.34169500      -2.36918300       1.12114600      -0.07001166      -0.02362433      -0.06448070
6
Properties=species:S:1:pos:R:3:forces:R:3 charge=-1.0 dipole_moment="-0.017442739214605332 0.0048991226154000405 1.4610159441899202" energy=-13.526621862491716 pbc="F F F"
C       -0.01536700       0.03658800       1.24721700       0.09818118       1.09203090      -0.10276597
H       -0.22442700       1.05778300       0.89136200       0.50157753      -0.48166125       0.39939520
H        0.90440100      -0.37281300       0.85445400      -0.01588582       0.11528159       0.08346059
H       -0.85201700      -0.54280600       0.98521200      -0.74242409      -0.87350717      -0.44186931
Br       0.00403800      -0.01599800       3.21265300       0.16407599       0.14454537       0.03975389
I        0.00231900       0.00374000      -2.31428700      -0.00548159       0.00339591       0.02204207
6
Properties=species:S:1:pos:R:3:forces:R:3 charge=-1.0 dipole_moment="-0.7920142392787954 1.0552111084969331 0.3391549660224714" energy=-13.004832148473902 pbc="F F F"
C       -1.08195900       1.01119200      -0.49362900       2.80632794      -0.97062700       0.62497043
H       -0.38273300       1.13349100      -1.35157800      -0.31034246       0.12151240       1.26695951
H       -1.57079400       1.81922100      -0.10123700      -1.44558641       2.40115908      -0.01735186
H       -1.72927400       0.21842200      -0.74354500      -0.43670859      -1.14525120       0.28936020
Cl      -0.14095900       0.70614400       1.17083300      -1.03607443       0.46696173      -1.31605628
Cl       0.73946200      -1.24957200      -0.86741300       0.42375074      -0.87335136      -0.84686282
6
Properties=species:S:1:pos:R:3:forces:R:3 charge=-1.0 dipole_moment="1.1846716671753241 -1.3507883312294722 0.16861543884243066" energy=-12.896446055649278 pbc="F F F"
C        0.69451900      -2.09944600      -1.07848700      -0.03231157      -0.28670168      -0.20882141
H        1.06471300      -3.12803400      -1.07088800      -0.00202500       0.27619152       0.13435198
H        1.06360100      -1.58285000      -1.96425200      -0.07459902       0.07587120       0.29293300
H       -0.39419700      -2.09479600      -1.06812700       0.17614269       0.24857016       0.13508268
I        1.40899500      -1.09061100       0.67084500       0.00099502      -0.28340655      -0.26092791
I       -1.52033900       1.45669300      -0.47133200      -0.06805351      -0.02987622      -0.09174520
6
Properties=species:S:1:pos:R:3:forces:R:3 charge=-1.0 dipole_moment="0.12266856918080402 0.004651467680856163 0.6506233803882427" energy=-14.87501267607029 pbc="F F F"
C        0.18771100      -0.01250900       0.91742100       0.10066435      -0.72534528       0.13242622
H       -0.31313600      -0.89945800       0.39242600       1.26841065       1.31813116       1.35666634
H       -0.50890000       0.83558700       0.90436300       0.16762925      -0.52303904       0.69363381
H        1.11787800       0.37600100       0.35995000      -1.12511431      -1.30261095       1.61924747
F        0.44679400      -0.44078600       2.50250300      -0.28174099       1.04833860      -3.14970960
Cl      -0.32019100       0.21941200      -1.74610600      -0.12975176       0.18427355      -0.65133041
6
Properties=species:S:1:pos:R:3:forces:R:3 charge=-1.0 dipole_moment="-0.3175539522872554 1.8434417307201971 -2.22562938750572" energy=-12.031810025148875 pbc="F F F"
C       -0.39014300       1.28373400      -0.72041000      -4.41877844      -3.34073898      -2.69447569
H       -0.29130700       2.09023500      -0.00579100      -0.29507525      -0.10473749      -0.27678802
H       -0.11632800       0.24501900      -0.42926000       1.34152665       1.19201751      -0.23204619
H       -1.50147400       0.85909400      -1.17886400       2.14103747       1.99124447       2.91085204
Br       0.23586300      -2.12632800       2.79990700      -0.02356262       0.08808857      -0.10146499
Br      -0.11443500       1.81499200      -2.63029600       1.25496532       0.17406164       0.39352537
6
Properties=species:S:1:pos:R:3:forces:R:3 charge=-1.0 dipole_moment="-0.38188602577550157 -0.14392561772915352 0.6260378071854467" energy=-15.421724527328376 pbc="F F F"
C       -0.98474700      -0.31103300       1.84844600      -0.75903290      -0.40527737      -0.98614978
H       -0.40307200      -1.25723800       1.65887500      -1.09670928       0.73502034       0.29479345
H       -0.76248000       0.32077400       0.94434100      -0.31522344      -0.42835713       1.12459135
H       -2.11361600      -0.41612200       2.03720600       1.64721336      -0.34463172      -0.65824051
F       -0.50263300       0.24816300       3.01804300       0.42638407       0.44072054       0.52916907
Br       0.39175300       0.02815200      -1.22552800       0.09799760       0.00170104      -0.30470506
6
Properties=species:S:1:pos:R:3:forces:R:3 charge=-1.0 dipole_moment="-1.312061555428779 1.0421272019657422 3.1270742988658546" energy=-12.753799076470056 pbc="F F F"
C       -0.45952400      -0.97879200      -0.79690700      -2.56377982      -2.16996187      -0.45409542
H       -0.99899500      -0.63573700      -1.74166200       2.15439589       0.28835130       0.99362655
H       -1.34146700      -1.52034500      -0.38101100       0.57464726       0.15704711       0.26445598
H        0.30029600      -1.80286600      -0.87488600      -0.20379079       1.78058472      -0.48483604
I       -0.13900400       0.43098500       0.78157600       0.21610535      -0.01671114      -0.53532686
F        1.35161100      -1.44561200      -3.73827900      -0.17775683      -0.03893113       0.21679286
6
Properties=species:S:1:pos:R:3:forces:R:3 charge=-1.0 dipole_moment="-0.026405942807135672 -0.012906632165652085 0.7389430568313479" energy=-15.379242586826926 pbc="F F F"
C       -0.03894800      -0.02103000       0.90039800       0.21315012      -0.14066609       2.36487618
H       -0.00694200       1.04893900       0.68666500      -0.03827190      -0.69641934      -0.17121903
H        0.88130900      -0.57977300       0.65727800      -0.99275134       0.49839707      -0.02282883
H       -1.00117500      -0.52118300       0.69633100       0.96451651       0.41930119      -0.04598521
F        0.00874700      -0.00902400       2.47990100      -0.12534797      -0.08154563      -1.46781668
Cl       0.01657500       0.01526000      -1.75069200      -0.02131445       0.00090349      -0.65767795
6
Properties=species:S:1:pos:R:3:forces:R:3 charge=-1.0 dipole_moment="-0.00780853891908004 0.0011345559394488754 0.4843294419685556" energy=-12.845051341359426 pbc="F F F"
C        0.07908800       0.03620100       0.10513500      -1.46252895       0.26980439       0.14862880
H        1.12180800      -0.14663900      -0.01002700       0.34148315       0.17708989       0.23605403
H       -0.35450600       1.04568200       0.02322200       0.63583283      -0.88852807       0.10438885
H       -0.58785300      -0.79147400      -0.13162400       0.31628736       0.40464179       0.42118478
I        0.12677700       0.05665900      -2.69120000       0.04060441       0.05190543      -0.25644956
I       -0.13911600      -0.06278700       2.68153300       0.12819059      -0.01495971      -0.65342432
5
Properties=species:S:1:pos:R:3:forces:R:3 charge=-0.0 dipole_moment="-0.29758809613268167 -0.25711662306875915 0.015377889738985222" energy=-14.6814202443237 pbc="F F F"
C       -0.50972200      -0.42569500       0.02514600       2.52387784       1.35699750       5.35505087
H       -1.34565200       0.25801700       0.14230200      -0.60534726      -0.95020267      -0.18955562
H       -0.09912400      -0.85693900       1.06000800      -2.23851674       0.12793605      -1.92169561
H       -0.50870900      -1.20103200      -0.66914100      -0.13422702      -0.74336666      -1.64237351
F        0.55686900       0.48379200      -0.07600500       0.45418746       0.20812516      -1.60156702
6
Properties=species:S:1:pos:R:3:forces:R:3 charge=-1.0 dipole_moment="0.43376126772707496 0.17792525350788033 -0.15078057931479752" energy=-14.86353219704309 pbc="F F F"
C        2.15324100       1.10818300      -0.55502000       1.90187292      -0.16969899       5.58020034
H        1.29610100       1.75872900      -0.43304900      -0.41566154      -0.88451869       0.00686433
H        2.59372500       0.61324000       0.47780200      -2.45248807       0.77971486      -2.11595224
H        2.08997500       0.27282400      -1.19520600       0.06491265      -0.18143351      -1.58647207
F        3.21297200       2.01243700      -0.66367600       0.96801270       0.52244563      -1.87168508
I       -0.90218900      -0.51709100       0.19723900      -0.06640234      -0.06713562      -0.01316971
6
Properties=species:S:1:pos:R:3:forces:R:3 charge=-1.0 dipole_moment="-0.23267392771281534 -0.32489469855219705 -1.165041838549458" energy=-13.19667042404422 pbc="F F F"
C       -0.52532500      -0.80926900      -2.61418300       2.32331944       4.90519057       0.92569131
H       -1.06471000      -1.49022400      -3.05468700      -3.64327608      -3.86978206      -1.20483034
H        0.47899600      -1.22854100      -2.55441700      -0.00282564       0.83568367       0.66051131
H       -0.95420000      -0.10883500      -1.85615800       0.75227245      -1.93471928       0.16527721
Cl      -0.60725900       0.42028800      -3.99048800       0.60327238       0.09477910      -0.45229565
I        0.28330700       0.01015700       1.71676700      -0.03279545      -0.03057196      -0.09497244
6
Properties=species:S:1:pos:R:3:forces:R:3 charge=-1.0 dipole_moment="-1.0687739204036844 0.0197965194471933 0.8193303668881009" energy=-13.746063806379478 pbc="F F F"
C       -1.25955600       0.29531200       1.20771800       3.53950481       3.01847122       1.64595403
H       -0.04115600       0.72552800       1.09469100      -3.68505188      -0.57318533       1.13032131
H       -1.89897400       0.96767500       0.75682300      -0.70468389       1.52582334      -3.20616023
H       -1.99656700       0.43658700       2.09122100       2.11469394      -1.96736766       0.54545032
F       -1.09211500      -0.85698300       0.58433900      -1.49783894      -2.22321096      -0.12583803
Cl       1.25429800       0.22418700      -0.96753500       0.23542565       0.21782079       0.00836277
6
Properties=species:S:1:pos:R:3:forces:R:3 charge=-1.0 dipole_moment="-0.13565986970014632 -0.028094018108834325 -1.181451623849043" energy=-13.546486078118837 pbc="F F F"
C       -0.09892900      -0.14078400      -1.52210600      -0.70171993       7.14502372       1.04514323
H       -0.87140300       0.19648000      -0.75299300       1.37375081      -0.35421062      -1.17137052
H        0.14495800      -1.05847500      -1.36386000       1.31721122      -5.83973882       0.72749472
H        0.82481500       0.49563700      -1.51994500      -1.00843662      -0.69813169       0.98824368
Cl      -0.63210600       0.16451500      -3.15261000      -0.97621658      -0.22628229      -1.58468207
Br       0.32117100      -0.04530600       1.89610900      -0.00500542      -0.02609259      -0.00620870
6
Properties=species:S:1:pos:R:3:forces:R:3 charge=-1.0 dipole_moment="-1.201440234623671 1.398569329102913 0.41997461386025514" energy=-12.923733844045566 pbc="F F F"
C       -2.05015900       1.49675200      -0.23874300       0.29931603      -0.45872700      -3.02203683
H       -1.43363900       1.17222500      -1.11213600       0.62618142       0.66274920       1.16404390
H       -2.78884100       2.13424900      -0.72520500      -0.40823105      -0.16985429       0.81716967
H       -2.33589300       0.57375200       0.15508900      -1.47961187      -1.27684952       0.17266039
Br      -1.25489000       2.25979600       1.25090900       1.05621903       1.19436441       0.89559603
I        1.18453700      -1.73497400      -0.76730400      -0.09273507       0.04916772      -0.02674205
6
Properties=species:S:1:pos:R:3:forces:R:3 charge=-1.0 dipole_moment="-0.25684462598252933 -0.06353619096355814 1.8434306179987752" energy=-13.084507006617168 pbc="F F F"
C       -0.18363600       0.07878200       0.59608800      -0.22813143      -0.45434173      -2.24522166
H        0.84717000      -0.15788000       0.25899300      -0.96624635       0.27738863       0.24122297
H       -0.49200500       1.08574200       0.26977400       0.34657548      -0.58123082       0.32942622
H       -0.90478700      -0.66028900       0.16871300       0.88629532       0.74432259       0.26392942
I        0.33550400       0.11565500      -2.72478300       0.01997644       0.01372969      -0.21647713
I       -0.30434500      -0.12962300       2.64414200      -0.05844426       0.00016352       1.62698186
6
Properties=species:S:1:pos:R:3:forces:R:3 charge=-1.0 dipole_moment="-0.821026379847958 -0.9857745916355881 -0.5828855223728077" energy=-12.601162601991089 pbc="F F F"
C       -1.56261200      -2.00479500      -2.01518100      -2.11966800      -1.88642316       0.84380527
H       -1.27402100      -3.07879600      -1.97438800       0.08982458       0.84570531      -0.19420058
H       -1.24402700      -1.53093700      -2.92110300       0.34192949       0.34005619      -0.19376298
H       -2.68659700      -2.01431400      -1.94870000       1.08860927       0.15551113      -0.34886787
I       -0.87886600      -1.01003000      -0.24574400       0.07930311      -0.11156686      -0.63131695
I        1.15396600       1.36197000       0.60301400       0.52014398       0.65678424       0.52479202
6
Properties=species:S:1:pos:R:3:forces:R:3 charge=-1.0 dipole_moment="-0.04891608299010034 1.2350630962284765 0.3636029531505209" energy=-11.70770234535956 pbc="F F F"
C       -0.32482700       1.79211100      -0.48431300      -0.33059607       3.93585016      -4.38490107
H       -0.21877000       2.92986800      -0.91098200       1.78135142      -1.97364681       1.20145603
H        0.35791300       1.03780800      -0.98876700      -1.28600573       1.12227890       0.64662529
H       -1.32574400       2.01399100      -1.08606200       0.60541719      -2.49670231       2.59187838
Br       0.11178000       1.86698300       1.37048800      -0.83176788      -0.07832044       0.04421784
I       -0.01465500      -1.54865500      -0.79387500       0.06126991      -0.50912732      -0.09977835
6
Properties=species:S:1:pos:R:3:forces:R:3 charge=-1.0 dipole_moment="2.7545525930084906 -0.22936286590631733 0.5082350224557771" energy=-13.19226010940324 pbc="F F F"
C        0.33970100      -0.87512800      -1.25748700      -1.27996158      -0.71775487       0.30300710
H        0.64188800      -1.92556400      -1.21688900       0.30540440       0.40805519       0.01648643
H        0.66520700      -0.37402200      -2.15099300       0.39897251       0.22065775      -0.06131670
H       -0.76372000      -0.85240800      -1.21631800       0.30000765       0.32538547       0.12940055
I        1.01622500       0.12516400       0.50985700       0.07137383      -0.12523793      -0.31966734
Cl      -3.32008700       0.10406400      -0.87607800       0.20461818      -0.11097499      -0.06734697
5
Properties=species:S:1:pos:R:3:forces:R:3 charge=-0.0 dipole_moment="0.21234293928295256 -0.2758336210064022 0.11801180972784223" energy=-11.025222144587786 pbc="F F F"
C        0.55445400      -1.01844500       0.69978500      -0.07234519      -4.72394784       0.66078539
H        1.29594500      -1.56831800       0.29178800       4.28025614       0.29116203      -3.15682075
H        0.29760100      -2.10211300       0.74776600      -3.04154636       0.94289405       1.46628842
H        1.01802800      -0.58772000       1.46815000       1.22909282       0.73750197       3.91556518
Br      -0.16966600       0.29625200      -0.19161200      -2.39494421       2.75148631      -2.88545982
5
Properties=species:S:1:pos:R:3:forces:R:3 charge=0.0 dipole_moment="0.3355671445348486 -0.4078633350420806 -0.0030374771886364483" energy=-13.133640964779163 pbc="F F F"
C        0.84878700      -0.95077700      -0.02637600      -4.75728271      -0.26926240      -1.50053037
H        0.23459300      -1.62913500       0.57482900       0.91151322       0.06397059       0.10919065
H        1.67941400      -0.53623900       0.39491300       2.15155277       0.74764395       1.00910150
H        0.92661400      -1.38823500      -1.05145500       0.06738039       0.99160874       0.84892125
Cl      -0.46666700       0.54460400       0.01411600       1.62586395      -1.53302192      -0.46671388
6
Properties=species:S:1:pos:R:3:forces:R:3 charge=-1.0 dipole_moment="-0.09791365927062753 -0.0028363898486221885 0.3871460472485062" energy=-14.52835578788167 pbc="F F F"
C       -0.40306200       0.19831500       1.52608100       0.59711716      -0.26451511      -1.35127422
H        0.46977700       0.85117000       1.16825300      -1.53853385      -1.57410558       0.57623517
H       -0.11896500      -0.94070300       1.65044100      -0.06795529       2.43927980       1.16282314
H       -1.12999700      -0.00423000       0.67286400       0.42269042       1.49039097       1.66652286
F       -0.92841400       0.99094600       2.62134700      -0.12861327      -1.45834628      -0.07218733
Br       0.33009400      -0.28613300      -1.03543300       0.71567793      -0.63214278      -1.98151130
6
Properties=species:S:1:pos:R:3:forces:R:3 charge=-1.0 dipole_moment="0.9153733847193852 0.4865948496069794 -1.0163583885201255" energy=-12.992775885797144 pbc="F F F"
C        0.23088700       0.45737200      -0.16600300      -0.08305281       2.08853708      -0.23605763
H        0.79261000       0.70761000       0.73888800      -0.22908788       0.20613770      -0.52432254
H       -0.67025100       1.11823800      -0.36851500       1.46535305      -1.15846204       0.24366192
H        0.09064300      -0.57279300      -0.20947000      -0.63636916      -1.27873928      -0.17734185
I        1.67014800       0.68239000      -1.91847900      -0.26424258       0.22270434       0.38146329
I       -1.70030500      -0.75781100       1.93423600      -0.25259239      -0.08006159       0.31264308
6
Properties=species:S:1:pos:R:3:forces:R:3 charge=-1.0 dipole_moment="-0.47105767752761446 2.152073755237346 -1.8368058484997265" energy=-11.402041676499723 pbc="F F F"
C        0.07812400       1.86070500      -0.53784400       3.62722262       3.11570161       2.18206611
H       -0.52139500       2.87237700      -0.45532400       2.31735602      -1.97181207       2.92879525
H        1.31348700       1.79570000      -0.40157100      -2.91476937       1.45366893      -1.27555317
H        0.00897200       0.97844100       0.01488100      -1.99679806      -1.12399177       1.28137363
Br       0.64266300      -2.31732200       2.27777400       0.00046074       0.11130769      -0.06348466
Br      -0.67894300       1.83701500      -2.16151400      -1.03315263      -1.58501271      -5.05388674
6
Properties=species:S:1:pos:R:3:forces:R:3 charge=-1.0 dipole_moment="0.00016669082132760997 7.725987274232081e-05 -0.792383604971769" energy=-14.02229383625077 pbc="F F F"
C        0.00034900       0.00041700      -2.01150600      -0.01984995       0.05541653       0.53772621
H       -0.89859500      -0.51897700      -1.67124400       0.37274519       0.21599479      -0.02735860
H        0.89957700      -0.51930400      -1.67548000      -0.35089287       0.20969610      -0.00108398
H        0.00005200       1.04047800      -1.67184000       0.00555153      -0.48349804      -0.03832024
Cl       0.00004100       0.00021700      -3.80226600      -0.00745106       0.00246980      -0.50317367
I       -0.00007200      -0.00015800       1.54200200      -0.00010233      -0.00008279       0.03023926
6
Properties=species:S:1:pos:R:3:forces:R:3 charge=-1.0 dipole_moment="-0.16750522505466772 0.18766952266320286 0.8372964623639538" energy=-13.087327237888735 pbc="F F F"
C       -0.01862400       0.31865100       0.84650200       0.18459288      -2.85868229       0.49955201
H       -0.30573300      -0.73801400       0.58186700      -0.43528883       1.54256585       0.46397823
H       -0.44035900       1.04303800       0.17928300      -0.11046694       0.33706496       0.27846335
H        1.07572000       0.19443600       0.83361000      -0.48731047       1.05434007       0.55828424
Br      -0.79612600       0.56013500       2.79606400       0.58685948       0.10464185      -0.92216838
I        0.52163200      -0.41539800      -1.97237700       0.26127501      -0.17983120      -0.87788987
6
Properties=species:S:1:pos:R:3:forces:R:3 charge=-1.0 dipole_moment="0.33849878628137225 -1.4253229413373891 0.015235011892132987" energy=-13.214728345940719 pbc="F F F"
C       -0.03708500      -1.53896700      -0.69500000       0.31263537       0.30889544       0.04936621
H        0.23254100      -2.55649600      -0.59749800       0.07428689      -1.25757550       0.04612251
H        0.50299900      -1.14266200      -1.53431400      -0.18975925       0.43183069      -0.39391103
H       -1.10491200      -1.43110600      -0.78965000      -0.12937021       0.37114803      -0.01170109
Cl       0.57281000      -0.74103400       0.74141300       0.62067566      -1.12008575       1.04335991
Cl      -0.53799300       1.58597900      -0.32426800      -0.68660955       1.26636302      -0.73129070
5
Properties=species:S:1:pos:R:3:forces:R:3 charge=-0.0 dipole_moment="-0.032618483259155166 -0.2764157159380224 -0.18277780852875072" energy=-12.30306937446489 pbc="F F F"
C       -0.00614400      -1.38812000      -1.00833300       1.91773663      -2.99676083       0.27297867
H       -0.94147900      -1.84276300      -0.82573900      -0.75365107      -1.05546878       0.92163565
H        0.91045200      -2.10092100      -0.67544500      -2.41424600       1.71208075      -1.25227286
H       -0.14363800      -1.24344900      -2.06006300       1.09599194       0.70907791      -0.66951891
I        0.00399100       0.25501600       0.18134400       0.15432431       1.63053204       0.72687252
6
Properties=species:S:1:pos:R:3:forces:R:3 charge=-1.0 dipole_moment="1.2623151933953036 2.988247832737694 0.10539622502800025" energy=-13.59958335393819 pbc="F F F"
C        0.03417300       1.09960400      -0.78938600      -1.14054042      -1.01571849      -2.19780332
H       -1.02005200       1.24538800      -0.56037700       0.03539381       0.43379913      -0.63485941
H        0.09518100       0.08314500      -1.24377600       0.09146494       0.84976920       0.19007242
H        0.52735300       1.87598400      -1.38787000      -0.74434419      -0.34493306      -0.21138018
Cl       0.81131900       1.09815400       0.69428500       1.70736021      -0.08219406       2.92722739
F       -1.51110400      -3.16341700      -0.43050000       0.05087596       0.15913639      -0.07249123
6
Properties=species:S:1:pos:R:3:forces:R:3 charge=-1.0 dipole_moment="0.0074100684795254685 0.006497766968513404 0.19859385699808282" energy=-12.835453010932714 pbc="F F F"
C        0.08608400       0.03959500       0.04303700      -1.76907235       0.08445200       0.10147374
H        1.11429800      -0.13793200      -0.03595200       1.04927602       0.02539993       0.21329513
H       -0.34273700       1.03604200       0.04754400       0.38553541      -0.43609255      -0.07237142
H       -0.58203000      -0.79874200      -0.09179000       0.18298080       0.28036545       0.20254535
I        0.12435200       0.05592200      -2.69141100       0.01666692       0.05923976      -0.03906586
I       -0.13767400      -0.06227900       2.68805200       0.13445945      -0.01338979      -0.40545734
6
Properties=species:S:1:pos:R:3:forces:R:3 charge=-1.0 dipole_moment="0.15660470369426313 -0.9060201775226693 0.8672314879883398" energy=-11.903243513197161 pbc="F F F"
C       -1.03525000      -1.04491200      -0.10246300      -1.78193043      -0.71630734       0.70482530
H       -1.78602000      -0.19768300      -0.21168400       1.64577200      -1.35400370      -0.74716109
H       -1.62693900      -1.78698300       0.45872700       0.93903894      -0.21850625       0.99360341
H       -0.60844000      -1.63216700      -0.92832300      -0.76476081       1.11374901      -0.26489307
Br       0.53668700      -0.27077800       0.71090000       0.25110681      -1.47807333       1.98048543
Cl      -0.50300800       1.13903100      -1.38738000      -0.28854516       2.65317760      -2.66693660
6
Properties=species:S:1:pos:R:3:forces:R:3 charge=-1.0 dipole_moment="0.9028398224871808 0.38926275609076155 0.682157050365742" energy=-15.024340220446861 pbc="F F F"
C        2.07992400       0.88920200       1.61978200       0.08600392      -1.59413447      -0.54927509
H        2.77875200       1.46348800       0.92736300      -0.13339964      -1.83741587       0.75554597
H        2.22137800      -0.26759600       2.01027700       0.31789122       3.05407484      -1.66684219
H        1.11998400       0.94723400       1.11178400      -0.22560352      -0.34407585       0.10557670
F        2.03737200       1.66165000       2.74262100      -0.13951424       0.67149146       1.28687580
Br      -1.05531400      -0.64094800      -1.09862000       0.09398874       0.05041471       0.06897756
6
Properties=species:S:1:pos:R:3:forces:R:3 charge=-1.0 dipole_moment="-0.27603470834641647 0.369513862592519 0.2611383698690443" energy=-13.055007380226192 pbc="F F F"
C       -0.22856200       0.09610400      -0.04513700       0.19338965      -1.87084587       1.36600870
H       -1.17557400      -0.60541500      -0.07774900       2.23498198       1.82178716       0.50591961
H        0.73819500      -0.34656200       0.45723000      -2.76482622       1.51494655      -0.87551880
H       -0.06082000       0.58606000      -1.01153700      -0.17931852       0.37717675       1.07944123
Cl       0.80748200      -1.56230200      -1.33814400       0.67079367      -1.61887929      -1.46667717
Cl      -0.69750700       1.54990800       1.39125500      -0.15483956      -0.22420021      -0.60903885
6
Properties=species:S:1:pos:R:3:forces:R:3 charge=-1.0 dipole_moment="0.964168815305477 0.22086851332234655 1.208531738422437" energy=-13.233694526174776 pbc="F F F"
C        1.03774800      -0.06921700       0.96470000      -2.80313926      -2.56425239       0.70389662
H        1.67242600      -0.48773700       0.20222100       0.75852383       0.67116288      -0.05708055
H        0.29824900       0.64740600       0.58831300       0.37685228      -0.64262671      -0.15495423
H        0.49265100      -1.03826500       1.37504600       0.79327023       2.29870627      -0.88995812
Br       1.80010100       0.74848800       2.51381500       0.85790108       0.25303462       0.40467624
I       -1.35270500      -0.46987100      -1.81013800       0.01644478      -0.01585085      -0.00686485
5
Properties=species:S:1:pos:R:3:forces:R:3 charge=0.0 dipole_moment="-0.15841448975439149 -0.16805080675875905 -0.30643593909330913" energy=-12.975692026116926 pbc="F F F"
C       -0.53955800      -0.68764300      -1.18871200      -0.88492698      -0.23054724      -1.03206300
H        0.23915100      -1.33222200      -1.67548300      -1.17304894       0.41212524       0.71528507
H       -0.94371500       0.04683300      -1.89431400       0.63772156      -0.00246209       0.05991185
H       -1.45411900      -1.12326400      -0.77228000       0.61825214      -0.90697933      -0.54950392
Br       0.15417200       0.18670000       0.32783900       0.80183303       0.72805934       0.80612009
6
Properties=species:S:1:pos:R:3:forces:R:3 charge=-1.0 dipole_moment="-1.1580566993700157 -1.6327974502831544 -0.1091375079066866" energy=-13.041591862604001 pbc="F F F"
C       -1.51177500      -2.09761100      -1.08182700       0.46581811       1.00837491      -0.00138120
H       -1.00048600      -3.02815800      -1.22623100       0.51431272      -0.21496738      -0.10624776
H       -1.34021600      -1.36977400      -1.87927200       0.00303596      -0.50845266      -0.00943749
H       -2.55291200      -2.30841800      -0.99268900      -0.73738679       0.09628833       0.32017487
Br      -0.80448000      -1.16236100       0.48442700      -0.34464406      -0.53113493      -0.17358136
Br       1.20345900       1.71356100      -0.18187900       0.09846092       0.14977911      -0.03168319
6
Properties=species:S:1:pos:R:3:forces:R:3 charge=-1.0 dipole_moment="-0.4130741430345027 -2.2638571491968515 -1.8792389814832091" energy=-11.730415901797736 pbc="F F F"
C        0.97479400      -2.02926400      -0.03447200      -1.83770229       6.05596039      -0.57491517
H        0.71503300      -2.97056400       0.19812600      -2.37204545      -2.68974023       1.84875290
H        0.81473500      -0.98967100       0.50223600       0.69932520      -3.02836997      -0.03994363
H        1.92778300      -2.21899800      -0.38157900       2.10584369       0.87776697      -1.69869610
Br       0.76364700       2.33251400       2.35154000       0.02589821      -0.14317755      -0.05538671
I       -0.67988600      -1.19402200      -1.55501600       1.37823687      -1.07238921       0.51983545
6
Properties=species:S:1:pos:R:3:forces:R:3 charge=-1.0 dipole_moment="0.026781658626636003 -0.10653924780281815 -0.008503877773760929" energy=-14.525710597416468 pbc="F F F"
C       -0.17449300      -0.37774500       1.33620500      -2.47772294       2.32459728       2.37015003
H       -1.21344300      -0.37644100       0.92326900       1.40056844      -0.23537834       0.46366198
H        0.26339200       0.66476200       1.25367000      -0.13248484      -2.31471447       0.27716031
H        0.33038000      -1.33580100       1.29858900       0.36281302       0.64116890      -0.23394572
F       -0.58085800      -0.28999200       2.90323400       0.41602561      -0.49886039      -0.74525693
Br       0.19698100       0.16925400      -1.07491100       0.43068912       0.08313611      -2.13190645
6
Properties=species:S:1:pos:R:3:forces:R:3 charge=-1.0 dipole_moment="-0.08870968004729064 -0.04259082779223076 1.8559705303575065" energy=-12.886133281141898 pbc="F F F"
C        0.02143300       0.01973000       0.62752800       1.71407542      -1.29480354      -2.95716686
H        1.11533300      -0.16320700       0.35175200      -1.79653276       0.24923093       0.27067599
H       -0.26575200       0.98568900       0.26449600      -0.22650546       0.16177022      -0.25134438
H       -0.60188600      -0.79874300       0.21781700       0.55703983       0.88618014      -0.04212547
I        0.15331600       0.06339400      -2.69801500       0.01813142       0.01055232      -0.29217350
I       -0.16041600      -0.06607500       2.61123700      -0.26618273      -0.01288688       3.27212651
6
Properties=species:S:1:pos:R:3:forces:R:3 charge=-1.0 dipole_moment="1.2094398065157645 -0.63746274316152 -1.0761294836305215" energy=-15.196750313548183 pbc="F F F"
C        1.15792800      -0.80936600      -1.33753300      -1.29904277       3.46653381       0.85703771
H        1.63535400      -0.59224900      -2.25847000      -0.42142749       0.03481274      -1.42397268
H        0.06331900      -0.55763000      -1.18124100       1.37177517       0.13487905      -0.43516798
H        1.29205000      -1.77300300      -1.08632200       0.47681266      -3.56541536       0.79751872
F        1.94006400      -0.05300600      -0.45486300      -0.12497979       0.03081570       0.35612301
Cl      -1.61169800       0.48565500       0.97911800      -0.00347922      -0.10125673      -0.15203140
6
Properties=species:S:1:pos:R:3:forces:R:3 charge=-1.0 dipole_moment="0.2874014348293278 -3.0116110065840873 2.2836854192766793" energy=-13.554848729179868 pbc="F F F"
C       -0.31795800      -1.14528100      -0.01294200      -1.35323032       2.80814983      -0.76139781
H       -1.38788000      -1.17084300       0.16224000      -0.12778435       0.55135717      -0.18999631
H       -0.12396200      -1.99412500      -0.55437200       1.12925636      -2.04930564      -1.11984612
H        0.04006900      -0.22711600      -0.51416100      -0.92710079      -0.66437414      -0.43054411
Cl       0.44888600      -1.03721100       1.49251900       1.26457456      -0.52350081       2.44224068
F       -0.47239400       3.09959500      -2.70987600       0.01438687      -0.12206313       0.06042813
6
Properties=species:S:1:pos:R:3:forces:R:3 charge=-1.0 dipole_moment="1.9906101463956858 -0.4226638924443406 4.109076386167333" energy=-12.12808874151936 pbc="F F F"
C       -0.95975400      -0.12225700      -0.76932600       1.75105200      -1.32291187       0.91282140
H       -0.93788300       0.54150200      -1.56263600       0.68696025       2.36803967      -1.02913451
H       -1.62346300       0.19534700       0.01546200      -1.35253098      -1.30491466      -0.78073610
H       -0.69334400      -1.04633800      -1.34829700      -1.30179179       0.07566037       1.75188349
F       -2.46968300       0.42920600      -4.76876800       0.11979748      -0.02580051       0.26268963
I        0.58944100      -0.05320400       0.95151600       0.09676605       0.20990642      -1.11726782
6
Properties=species:S:1:pos:R:3:forces:R:3 charge=-1.0 dipole_moment="-0.5341514763431413 1.6003059695545345 -2.236752692471772" energy=-14.91861545343189 pbc="F F F"
C       -0.52386900       0.60503900      -1.46213300       0.42070964      -1.69468158      -0.57921354
H       -0.25933200       0.89769500      -2.58879700      -0.85323196      -0.76833104       2.54133821
H       -1.53184000       0.82515300      -1.11923100      -0.28956434       0.24147597      -0.81026934
H       -0.44125500      -0.56884300      -1.24311400       0.55669890       2.71051783      -0.51208254
F        0.27011000       1.37026900      -0.61487700       0.23496645      -0.48341525      -0.50796209
F        0.32718300      -1.90185100       2.13976000      -0.06986511      -0.00554124      -0.13292347
6
Properties=species:S:1:pos:R:3:forces:R:3 charge=-1.0 dipole_moment="1.6052812936882557 0.07977028942923567 4.378432878116434" energy=-12.002963033715194 pbc="F F F"
C       -1.14435900       0.06348800      -0.73979100       3.63908364       0.08910776       0.82592067
H       -0.47275100       0.54346600      -1.38464300       1.16646023       0.37028156      -1.42200836
H       -1.69366700       0.93153100      -0.47341900      -1.94785813      -0.66467547       0.77733967
H       -1.14112900      -0.96457400      -1.09172200      -1.54431626       0.23348807       0.60647392
F       -2.04036100      -0.02990500      -5.07789400       0.04722140       0.00486864       0.23128103
I        0.53843300      -0.01174000       1.00169000      -1.36025406      -0.03330299      -1.01846803
6
Properties=species:S:1:pos:R:3:forces:R:3 charge=-1.0 dipole_moment="-0.41527710776208 1.1123410801494054 0.8157425454004781" energy=-13.69624359987095 pbc="F F F"
C       -0.88804300       1.61165200       0.84844200       0.20770144      -1.76659226      -2.25247680
H       -1.18165200       0.52014900       1.04933100       0.01735855       1.85968008      -0.74806355
H       -0.07450100       1.55704400       0.01320800      -1.71146780       0.18109052       1.51312312
H       -1.71569600       2.32827500       0.61310300       0.64886164      -1.12874831      -0.10773900
Cl      -0.18562600       2.17656700       2.31781900       0.88696535       0.74813657       1.54067352
Br       0.32730700      -1.45934300      -1.31912100      -0.04890496       0.10656606       0.05548287
6
Properties=species:S:1:pos:R:3:forces:R:3 charge=-1.0 dipole_moment="0.26395359262924395 1.0433257883476692 0.37045579802732265" energy=-15.00039779312096 pbc="F F F"
C       -0.12837400       0.39085200       0.27227400       5.14713500      -2.10356055       0.21192319
H        0.31043800      -0.12470800       1.26932500      -1.22817391       0.68508694      -2.71394152
H       -1.13720400       0.68761300       0.52399800       0.00426649       0.58077625      -0.86287514
H        0.24711700      -0.11984300      -0.71774800      -2.33143333       0.37148484       2.63769133
F        0.90457700       1.49657200       0.15346100      -1.30489255       0.87345883       0.74362428
F       -0.75458900      -1.80636900      -0.45448500      -0.28576425      -0.40536324      -0.01600203
6
Properties=species:S:1:pos:R:3:forces:R:3 charge=-1.0 dipole_moment="-0.02325204663217518 -0.42663854247288563 1.3249433162655342" energy=-14.938733054959084 pbc="F F F"
C       -0.25815500      -0.62683800       1.48071100       0.63838542       0.47283722       4.16772408
H       -1.03496200       0.01082600       1.05069000      -0.09417746      -1.05772158       0.05238006
H       -0.37681200      -1.09894100       2.59805000      -0.71204136       1.70780501      -2.01638112
H        0.02871900      -1.53332500       1.04422500       0.28599308      -0.62282048      -2.00350761
F        0.84089000       0.23595100       1.62757400      -0.00191547      -0.48128587      -0.12484249
Cl      -0.27270800       0.25052400      -1.66031800      -0.11709936      -0.02024024      -0.07539658
6
Properties=species:S:1:pos:R:3:forces:R:3 charge=-1.0 dipole_moment="0.2441623649541563 0.14685725947567718 -0.487615632446157" energy=-13.366235363309208 pbc="F F F"
C        0.46416600       0.25725600      -0.84255400       2.09978720       0.06750998      -0.45376478
H        1.10574800       0.82530300      -0.14075700      -0.13440546      -1.46640823      -0.48198418
H       -0.35937900       0.84328000      -0.97169800      -2.36971757       1.03417593      -0.22225286
H        0.25776900      -0.79632300      -0.85834800       0.33158594       0.21410298       0.89829929
Cl       1.24635800       0.40268700      -2.50842800       0.88132949       0.38247888      -1.26161008
Br      -0.71363500      -0.26461400       1.41912600      -0.80832970      -0.23191815       1.52102566
6
Properties=species:S:1:pos:R:3:forces:R:3 charge=-1.0 dipole_moment="-0.9686567672282689 2.472083089781618 -0.38130869343877644" energy=-12.829130976955199 pbc="F F F"
C       -1.18570300       0.72931700      -1.50383700       1.44207171      -1.24681389      -0.91925121
H       -0.30798100       0.43924900      -2.15531800      -0.73786090       0.26903820       1.12871643
H       -1.79847400       1.34202500      -2.17300300      -0.39498215      -0.20423097       0.82280295
H       -1.58376000      -0.22069000      -1.07483300      -0.05432998       1.04040469      -0.60211178
I       -0.43696700       1.82246600       0.18062400      -0.16504529       0.05864327      -0.35305620
Br       0.97039100      -2.92934800       0.13866000      -0.08977059       0.08369404      -0.07655615
6
Properties=species:S:1:pos:R:3:forces:R:3 charge=-1.0 dipole_moment="0.05190011328046983 1.659697644604957 0.3537205687432411" energy=-12.430514195200358 pbc="F F F"
C        0.22211000       3.49214200       0.83430100       0.73386540       2.93884827       0.02559071
H       -0.25703400       3.12931800      -0.03293200      -0.26983678      -0.67190490      -0.86458493
H        1.03151900       4.33518800       0.45330300      -1.02625333      -3.57357038       1.57111693
H        0.26682400       2.61297000       1.63643700       0.27176614       2.81229188      -1.35947347
Cl      -0.95028800       5.06077500       1.11974600       0.28343741      -1.57356050       0.60583834
I        0.26001800      -2.20874500      -0.49242100       0.00624778       0.06909583       0.02187700
6
Properties=species:S:1:pos:R:3:forces:R:3 charge=-1.0 dipole_moment="-0.019251466920312543 0.006059079060955981 0.7385461739234249" energy=-15.465505426573174 pbc="F F F"
C        0.00327700       0.11482900       2.07730000      -1.63556626      -0.08985595       1.54031871
H       -0.39318700       0.84106700       1.40597000      -0.66388408       0.25832030      -0.38309594
H        0.91369500      -0.17001500       1.67881500       1.41407136      -1.32839140      -0.98335550
H       -0.74702100      -0.73250100       2.31503200       1.47913571       1.47958513      -0.36181029
F        0.38903900       0.80767000       3.26370600      -0.57851522      -0.29516986       0.18961013
Br      -0.09412900      -0.22561600      -1.34962800      -0.01572795      -0.02419305      -0.00138223
5
Properties=species:S:1:pos:R:3:forces:R:3 charge=0.0 dipole_moment="0.11800651795573658 -0.06209365388756112 -0.3492252083395013" energy=-13.093247896662007 pbc="F F F"
C        0.32698500      -0.29548500      -1.01116100       1.93916677       3.36960681      -1.31201707
H        0.47996900      -1.35227300      -1.29632900      -0.03334053       0.75434116       0.68094592
H        1.24570400       0.42913600      -0.96690100      -0.85245240      -2.37694340      -1.07361666
H       -0.30600000       0.27755900      -1.72348600       0.04324956      -1.04393173       0.35294564
Cl      -0.19891700       0.14226400       0.59139300      -1.09723635      -0.70287435       1.35323032
6
Properties=species:S:1:pos:R:3:forces:R:3 charge=-1.0 dipole_moment="0.0524202944784541 -0.026522361793459716 0.29766747271426625" energy=-14.339529854872392 pbc="F F F"
C        0.16790600      -0.12917900       0.65101000      -2.93636201      -2.87412537       3.58767288
H       -0.44195200       0.67892500       1.05481700      -0.00568265      -0.45059203      -0.24195625
H        0.98843200       0.23899500       0.18028100       2.36865005      -0.01386236      -0.83745619
H       -0.40086500      -1.11669900       0.45385400       1.47297791       2.20322320      -0.09472048
F        0.77712200      -0.67344600       2.02707200       0.27877188       0.27390941       0.25484314
Cl      -0.47924400       0.41381500      -1.40227400      -1.17890745       0.86060331      -2.66920843
6
Properties=species:S:1:pos:R:3:forces:R:3 charge=-1.0 dipole_moment="-0.07624173578919599 0.9072240556767022 -1.6190515430615482" energy=-12.466276800931897 pbc="F F F"
C       -1.04838300       0.81625600      -1.94712900       1.43441136      -0.41581889      -1.53380096
H       -1.73954300       0.95112000      -2.76144300       0.16463598       0.16451770      -0.14975494
H       -1.26450600       1.29512300      -1.08098500      -0.56763226       3.07560011       2.03792182
H       -1.13552800      -0.12503000      -1.43456700       1.33696912      -1.53088122      -1.03311047
Br       0.85781500       1.62215600      -2.59597200      -2.28438625      -1.34830871       0.80702203
I       -0.36969200      -1.20366500       2.03431700      -0.08467569       0.05465086      -0.12829754
6
Properties=species:S:1:pos:R:3:forces:R:3 charge=-1.0 dipole_moment="-1.5468500752750072 -1.0710282153206863 -2.406815960162305" energy=-11.857505131202078 pbc="F F F"
C       -0.60763600      -2.06990500      -3.12431300       2.30603751       0.98495524       1.43041227
H       -0.17222300      -3.05344000      -2.78276200      -0.72574226       1.40521648       1.03741655
H        0.16991100      -1.24193500      -3.08437300      -0.37816765      -1.97955572      -1.23969451
H       -0.98907700      -2.38441000      -4.06874800      -0.92787058       1.04253305      -0.76724398
I       -1.72160700      -0.60523800      -1.80843900      -0.27355306      -1.45241886      -0.44861331
I        1.80910200       0.96560000       2.34960400      -0.00029311      -0.00075848      -0.01167435
6
Properties=species:S:1:pos:R:3:forces:R:3 charge=-1.0 dipole_moment="1.7204133210362096 3.40150348355542 1.2639397674317345" energy=-15.12985072130049 pbc="F F F"
C        0.58806400       1.39657400       0.76813400      -0.04609166       2.18261992       3.27100397
H       -0.28711400       1.92445700       1.22136700       0.17034691      -0.85403055      -0.93998973
H        1.07570600       0.91369300       1.61298200      -0.00592125      -0.57672317      -0.26361471
H        0.48360200       0.83437800      -0.07075800      -1.28183952      -2.25683276      -1.83238885
F        1.43529600       2.37960900       0.34320400       1.14829127       1.47253003      -0.25186837
F       -1.96869300      -3.71871700      -1.16236000       0.01524973       0.03351279       0.01675382
6
Properties=species:S:1:pos:R:3:forces:R:3 charge=-1.0 dipole_moment="0.013568103678856887 -0.21108878929391622 0.6535497303626607" energy=-15.053922158399228 pbc="F F F"
C        0.00526500      -0.26512100       0.82853600       1.26904417      -1.21437737       1.95999374
H        0.52032700      -1.16982700       0.35357600      -0.44638108       1.73887319       1.01480832
H       -1.05925100      -0.47771000       0.86866300       0.16145501       0.92125924      -0.75410924
H        0.47192800       0.72035400       0.64235900      -0.97475208      -1.14390702      -0.13587304
F        0.22717800      -0.34225000       2.38441900       0.18440005      -0.40229694      -1.01063594
Cl      -0.11818800       0.32930400      -1.66444600      -0.19380977       0.10049723      -1.07444712
5
Properties=species:S:1:pos:R:3:forces:R:3 charge=0.0 dipole_moment="0.43585151770880215 0.2597148831726276 0.01715063339437409" energy=-13.852873997933267 pbc="F F F"
C        0.64305700       0.27934700      -0.04768700      -5.50932067       5.33476075       1.26847030
H        1.43515200      -0.17631500       0.36519000       2.24325580      -2.89831945       0.98561910
H        0.32236500       1.06243000       0.70080500       0.84832013      -0.85508624      -0.08406325
H        0.95041500       1.08143000      -0.79182400      -1.08853368      -2.24937554      -0.74006588
F       -0.72958600      -0.40484800       0.00132800       3.50614474       0.66746460      -1.43097431
6
Properties=species:S:1:pos:R:3:forces:R:3 charge=-1.0 dipole_moment="0.5087298031476544 0.3787268378284355 0.48430298310802744" energy=-15.120499396055916 pbc="F F F"
C        0.24472300       0.21526000       0.03329500      -2.20923033      -2.00641604       3.73411779
H        0.05589200      -0.90640100       0.03772800       0.81232776       2.07788706      -0.19439598
H       -0.59267300       0.74778900       0.46273300      -0.36304082      -0.34415298      -0.73465216
H        0.56821800       0.68990900      -0.85060100       1.46896493       0.29920290      -0.40544346
F        1.01328100       0.48637000       1.51057100       0.35690874      -0.12755141      -2.17082370
F       -1.17992200      -0.68890900      -1.49386300      -0.06550297       0.10200647      -0.22823890
5
Properties=species:S:1:pos:R:3:forces:R:3 charge=0.0 dipole_moment="-0.31771799722253025 0.20138897102428105 0.2749816456973944" energy=-12.683776683790711 pbc="F F F"
C       -0.90262600       0.45469100       0.67846300      -1.58278459       0.09423608      -3.86885749
H       -1.21909200       1.51196100       0.34447300      -0.07109564      -2.08480024      -1.27070047
H       -0.55497200       0.88167900       1.50654300       2.39186968       0.04004236       4.15266462
H       -1.76456200      -0.25731100       0.85331600       1.42890097       0.84117863      -0.58124265
Cl       0.52672800      -0.28614600      -0.39853600      -2.16618080       1.10882946       1.56737340
6
Properties=species:S:1:pos:R:3:forces:R:3 charge=-1.0 dipole_moment="-0.09996686684761523 1.1271104160962422 -0.31346870422170253" energy=-15.181168049294966 pbc="F F F"
C        0.04416200       0.36265300      -0.04494900      -4.69203274      -1.85935870      -5.35879903
H        0.69102000       0.18119500      -0.82740500       1.93063071      -1.85098101      -0.90310674
H        0.40496800       0.17218600       0.85657600       1.34262349       0.20118987       4.11814550
H       -0.91515100      -0.23835800      -0.25753300       1.87663703       0.62346120       0.89632314
F       -0.30495800       1.61884000      -0.52436700      -0.65992613       3.39059216       1.00412745
F        0.25542400      -1.87338900       0.57970600       0.20154931      -0.50491328       0.24370357
5
Properties=species:S:1:pos:R:3:forces:R:3 charge=0.0 dipole_moment="-0.07260840506146464 -0.20586051845354547 -0.26386363250344813" energy=-12.560482770683281 pbc="F F F"
C       -0.53801400      -1.04478200      -1.39945800       0.08098718      -0.26969434      -1.06459620
H        0.21249700      -1.03016500      -2.18665700       0.56134848       0.15498868       0.44360840
H       -1.44583100      -0.80097100      -2.01468100       0.34224008       0.01368495       1.66345193
H       -0.50837200      -2.02868500      -0.93585300      -0.56467755       0.06594263      -0.37602387
I        0.09377000       0.19110400       0.25535700      -0.41984318       0.03577896      -0.66576099
6
Properties=species:S:1:pos:R:3:forces:R:3 charge=-1.0 dipole_moment="1.0221269492924818 3.7630796879894812 1.4226241375635136" energy=-13.393667396398978 pbc="F F F"
C       -0.28627900       0.12678800      -0.87378700       0.19319939      -1.98574848       1.05602105
H        0.03775300      -0.96424200      -0.76590200      -0.31404639       1.67606628      -0.54514539
H        0.03456500       0.62915800      -1.77264400       0.23099821      -0.02545804       0.02464351
H       -1.36004300       0.13026000      -0.76086700      -0.13029992       0.16712532      -0.13062593
Br       0.40757600       1.06054600       0.72283100      -0.04382703      -0.03104299      -0.45321559
F       -1.25108300      -4.18611400      -1.86188300       0.06406778       0.19906305       0.04806215
6
Properties=species:S:1:pos:R:3:forces:R:3 charge=-1.0 dipole_moment="3.167829410914639 2.4001414480054635 -1.165089464498409" energy=-13.140367320503914 pbc="F F F"
C        0.17548000      -0.13765300      -1.36277200      -1.99166459      -0.31275210      -1.02897150
H        0.94510300      -0.76850000      -1.84482100      -0.85107172       0.09008272       0.53550426
H       -0.21510300       0.60431200      -2.07375200       0.61587284      -0.07169727       0.13365161
H       -0.77089200      -0.58164200      -0.96399100       1.18795054      -0.66947212      -0.61965134
Br       0.86446800       0.73342500       0.13891000       0.94496790       0.88495578       1.08498505
F       -3.47426200      -2.67756900       0.91081500       0.09375066       0.07930928      -0.10529080
5
Properties=species:S:1:pos:R:3:forces:R:3 charge=0.0 dipole_moment="-0.19734605713557327 0.2219686727431088 0.2361982479351705" energy=-11.85560885003852 pbc="F F F"
C       -0.96642400       1.30645200       1.10802700       5.73999287      -1.18263350       3.36370870
H       -0.78418600       0.60793000       2.00127800      -1.11408634       1.66528205      -1.14106081
H       -1.87582300       1.42526200       0.76391200      -4.67003695      -0.37046617      -1.78805583
H       -0.62513600       2.36894300       1.35168200       0.67189461      -1.74444015      -0.84727626
I        0.17139000      -0.23095900      -0.20311400      -0.62749834       1.63211635       0.41247594
6
Properties=species:S:1:pos:R:3:forces:R:3 charge=-1.0 dipole_moment="0.024795656555389903 0.00863775960803358 -1.9490729104296878" energy=-13.212155649436 pbc="F F F"
C        0.01682100      -0.00539300       0.13354900       0.31331311       0.49173277       0.40053831
H        0.31432600       1.00192200       0.46636400      -0.12229813      -0.67448423      -0.45580212
H        0.70266700      -0.76341300       0.49355400       0.24387584       0.14608444      -0.46054786
H       -0.94584700      -0.25845900       0.55232400      -0.35641817       0.12361196      -0.55909825
Br      -0.02854800      -0.01351900       3.14578700       0.00000463      -0.00637479       0.24231569
I        0.01560600       0.00991400      -2.12105800      -0.07846905      -0.08052233       0.83229855
6
Properties=species:S:1:pos:R:3:forces:R:3 charge=-1.0 dipole_moment="-0.5722734025921603 0.8977120953168171 -0.40760403820890423" energy=-13.094387243542277 pbc="F F F"
C       -0.26351000       0.16307700      -0.14129000      -0.57117215      -1.52645378       2.59196632
H        0.67263500       0.35388900       0.53201800      -1.90455818      -0.36957965      -2.29812417
H       -0.28431200      -0.61461000      -0.95205800       0.90027852       1.55257516       0.60973253
H       -1.01433900      -0.35122400       0.60301500       1.11585320       1.73638488      -1.35253200
Cl       0.97531500      -1.78116900       0.77785200       1.11171784      -2.17967395       0.90037366
Cl      -0.84548700       1.75960900      -0.73874800      -0.65243907       0.78748731      -0.45186010
6
Properties=species:S:1:pos:R:3:forces:R:3 charge=-1.0 dipole_moment="-1.1714078403925412 -3.5871229737048984 -1.6765127796478332" energy=-12.278841738431824 pbc="F F F"
C       -1.68941200      -1.92397500      -0.61860300      -0.14134281      -2.36862279      -3.59166272
H       -1.72572800      -3.02851400      -0.76924000       1.05721713       0.39364158      -1.01373000
H       -2.06018800      -1.46884400      -1.56153500      -1.19490846      -0.35307265       1.50071960
H       -2.19096300      -2.07069600       0.26732400      -1.37616764       1.99813040       2.32037655
Br       0.01892500      -1.19865800      -0.67086000       1.65836166       0.32816638       0.78439273
Cl       0.90888100       3.53323200       1.72089200      -0.00239473       0.00136166      -0.00021083
5
Properties=species:S:1:pos:R:3:forces:R:3 charge=0.0 dipole_moment="0.3318629040609017 -0.23894467765799682 0.1374484886718521" energy=-12.541051147555596 pbc="F F F"
C        1.23210400      -0.84675200       0.52392900      -4.01402404      -0.98581502      -0.84593466
H        1.30818800      -1.33192200      -0.46094700       0.77977605      -0.75028550       1.26539063
H        0.55392900      -1.31074700       1.31895800       2.35135218      -0.11225540      -0.99262176
H        2.04294000      -0.24123600       0.78250900       0.93274025       0.80158826       0.63287760
Br      -0.32279100       0.22755500      -0.13668800      -0.05043373       1.04676817      -0.06028003
6
Properties=species:S:1:pos:R:3:forces:R:3 charge=-1.0 dipole_moment="0.8603902850101705 0.9270533841109503 0.4380237901581667" energy=-14.938613241975304 pbc="F F F"
C        2.85789500       3.03401500       1.62808700       2.20669368      -4.47598395      -3.54845173
H        3.38755000       3.04642300       0.57952300      -0.58113364       0.32246161       1.85186187
H        1.86748800       3.32809200       1.36137300      -0.86340325       0.37295345       0.94145526
H        3.00724000       1.90547700       1.91676700      -1.13232420       2.08040417      -0.44019655
F        3.54999600       3.73472300       2.51867000       0.34841176       1.67439506       1.18830278
I       -1.08225700      -1.13389800      -0.68479600       0.02288796       0.02675130       0.00880243
6
Properties=species:S:1:pos:R:3:forces:R:3 charge=-1.0 dipole_moment="-1.5932753211349835 -2.0743688444609414 4.008584046349628" energy=-12.394597371294912 pbc="F F F"
C       -0.68500100      -1.70090100      -0.14083800      -2.30796481      -2.10905757       0.12993328
H       -1.16227500      -1.34845700      -1.07029200       1.43439645       0.71200434       0.16729552
H       -1.62817500      -2.15718700       0.26256900       1.06122445      -0.22691170       0.00066746
H        0.05926800      -2.54386800      -0.26554100      -0.57988048       1.60075095       0.17143089
I       -0.36132500      -0.30018300       1.42754800       0.41194115       0.05392375      -0.46928807
Cl       1.52890800       1.89203500      -4.33775000      -0.01983915      -0.03040175       0.00061141
5
Properties=species:S:1:pos:R:3:forces:R:3 charge=-0.0 dipole_moment="-0.10244341619305401 0.08209126067476867 -0.35546420765204906" energy=-11.671445161453258 pbc="F F F"
C       -0.37586900       0.51767800      -1.75439600      -4.35441036      -2.28717384       0.99594260
H       -0.99031400      -0.53934300      -1.97315600       2.77325636       2.62458333      -0.57886592
H        0.65113000       0.80162200      -2.04081900      -1.30757883      -0.24291939      -0.89855589
H       -1.36151100       1.19198700      -1.81338400       3.08752643      -0.55992769       0.33032610
I        0.07464000      -0.08604400       0.30856100      -0.19897563       0.46529360       0.15121482
6
Properties=species:S:1:pos:R:3:forces:R:3 charge=-1.0 dipole_moment="0.6395752185860909 1.5923016350675459 2.1283634411408228" energy=-12.553017984527932 pbc="F F F"
C        0.24790800      -0.04314200       0.24766500      -3.59444414      -1.97622306       3.99568128
H       -0.60305300       0.16598300      -0.32202400      -0.38971551       0.79610359      -1.65227843
H       -0.20301300      -0.92394800       0.84701200       0.43985202       1.40430169      -0.37526693
H        1.02527700      -0.58370300      -0.09562400       3.12113795      -0.40065555      -1.94513533
I        0.50893200       1.45237100       1.73301400       0.37817485       0.09454153      -0.18272163
Br      -0.81943000      -2.15357500      -2.67900300       0.04495471       0.08252110       0.16039880
5
Properties=species:S:1:pos:R:3:forces:R:3 charge=0.0 dipole_moment="0.0358464642435946 -0.18401608320147012 0.2942966138829746" energy=-14.142258608118995 pbc="F F F"
C       -0.02095000      -0.34523200       0.50544900      -2.57934940      -6.41867622      -5.06626557
H       -0.11907700       0.08347400       1.39310900      -0.83440274       2.34259860       3.53392551
H        0.78917800      -1.07911800       0.52604100       0.31649665       0.54484508      -0.16222582
H       -1.03824500      -1.22094100       0.19716400       2.76561092       2.94459571       1.45843421
F        0.05487200       0.47644200      -0.57211200       0.33267558       0.58680343       0.23538965
5
Properties=species:S:1:pos:R:3:forces:R:3 charge=-0.0 dipole_moment="-0.10244341619305401 0.08209126067476867 -0.35546420765204906" energy=-11.671445161453258 pbc="F F F"
C       -0.37586900       0.51767800      -1.75439600      -4.35441036      -2.28717384       0.99594260
H       -0.99031400      -0.53934300      -1.97315600       2.77325636       2.62458333      -0.57886592
H        0.65113000       0.80162200      -2.04081900      -1.30757883      -0.24291939      -0.89855589
H       -1.36151100       1.19198700      -1.81338400       3.08752643      -0.55992769       0.33032610
I        0.07464000      -0.08604400       0.30856100      -0.19897563       0.46529360       0.15121482
6
Properties=species:S:1:pos:R:3:forces:R:3 charge=-1.0 dipole_moment="-0.2575770072419497 1.7075807736800364 -2.3019896589900823" energy=-13.258231555435966 pbc="F F F"
C       -0.71867900       2.47313400      -3.67466000      -0.67804366      -2.04538625       0.51407617
H       -0.51124800       3.47076200      -3.86260600       0.28001372       1.65509996      -0.87130887
H       -1.81722000       2.30671200      -3.63536800       0.70630317       0.26679414       1.26664275
H       -0.48481600       1.77659300      -4.47656600       0.90373409       0.29025134       0.04527919
Cl       0.32500800       2.14116500      -2.19188700      -1.20812239      -0.15276519      -0.96618979
Br       0.04572000      -1.67979100       2.03670200      -0.00342471      -0.01423774       0.01211452
6
Properties=species:S:1:pos:R:3:forces:R:3 charge=-1.0 dipole_moment="0.0700302536915976 0.25586035637088056 -0.03206972649180045" energy=-12.94983822970612 pbc="F F F"
C        0.19499800       1.54140000      -0.91421700       4.59733592      -2.78211741      -4.21510592
H        0.03364500       0.58267700      -1.54763000      -0.62021081       2.01950038       2.08365095
H        1.28690400       1.48983100      -0.53226500      -1.97850568       0.42264054      -0.83303183
H       -0.40229300       2.09984800      -0.30877700      -2.18908316       0.81933402       1.23956698
Cl       0.23734400       2.72387700      -2.72563100       0.15936727      -0.61138987       1.71513060
I       -0.11553000      -1.12691800       1.02282500       0.03127799       0.13234292       0.00900709
6
Properties=species:S:1:pos:R:3:forces:R:3 charge=-1.0 dipole_moment="-0.1261823058589479 0.15933525810077256 1.4083575199667124" energy=-13.378364319414068 pbc="F F F"
C       -0.16889700       0.38153200       0.41038000       0.11965247      -0.57936626      -0.45588131
H        0.83598200       0.74927500       0.14523800      -1.04171081      -0.20257363      -0.06168951
H       -0.42359900      -0.56693200      -0.06831200       0.56046659       0.43263750       0.29823976
H       -1.01122700       1.03592400       0.22704300       0.36875227       0.41973879       0.03390565
Br      -0.09627000       0.01770100       2.31272200      -0.07671401      -0.03758285       1.22102521
Br       0.14233300      -0.11791400      -2.39175800       0.06952263      -0.03272706      -1.03650535
6
Properties=species:S:1:pos:R:3:forces:R:3 charge=-1.0 dipole_moment="-0.06608365005521248 0.0843138049591368 0.00912830688222626" energy=-14.36453015460338 pbc="F F F"
C       -0.49993100       0.26678900       1.28193000      -0.63303084       3.18464678       2.51574699
H       -1.26447000       0.94636400       0.93069600      -0.46468219      -0.31424745      -0.20221882
H        0.41573500       0.89490500       1.11040000      -0.60168549      -1.69690919       1.12785665
H       -0.62589900      -0.70110200       0.86480700       0.28560176      -0.67785906       1.07830841
F       -0.85775300       0.31179500       2.84545000       0.61956083      -0.30587954      -1.70650146
Br       0.34840000      -0.15848700      -1.03447200       0.79452184      -0.19011767      -2.81366690
6
Properties=species:S:1:pos:R:3:forces:R:3 charge=-1.0 dipole_moment="-1.2933763081237695 -1.4325657898183766 -2.9742897254546516" energy=-12.078520558668442 pbc="F F F"
C        0.40097100      -1.23196400      -2.41371300       1.58665925       3.43187842       0.88962953
H        0.65904500      -0.21277300      -2.95723400      -0.33924166      -2.40199366       0.99392428
H        1.30909200      -1.90132300      -2.41040500      -1.81173415      -0.39750389      -1.23995522
H        0.43467100      -0.96466000      -1.34057100      -0.45932042       0.14539692      -0.48702303
I       -1.74575300      -1.36223800      -2.78825500       1.01911698      -0.75714417      -0.12050556
I        1.65502400       1.55979500       3.18807500       0.00421404      -0.02074675      -0.03613223
5
Properties=species:S:1:pos:R:3:forces:R:3 charge=0.0 dipole_moment="0.23776990425054512 -0.06200369376176527 0.047535988824949846" energy=-13.453093586553052 pbc="F F F"
C        0.53989900      -0.16878500       0.12998900       5.78684146      -2.65945264      -4.71266378
H        0.98327900       0.76941600       0.35258800       1.72815735       0.00704997       2.30804811
H        0.91985500      -0.08874500      -1.03979900       0.15782461      -1.39632201       2.38678353
H        0.82594600      -1.35040700       0.52710100      -1.09086876       4.01567623      -0.55951477
F       -0.66316400       0.18693900      -0.06886900      -6.58238763       0.03304125       0.57736954
5
Properties=species:S:1:pos:R:3:forces:R:3 charge=-0.0 dipole_moment="-0.02415164789013371 -0.24232082826139414 -0.2815381513362804" energy=-12.38603555070037 pbc="F F F"
C       -0.30049600      -1.32777600      -1.28531900       0.70048734       2.51299590      -1.11398349
H       -0.53381700      -0.75472900      -2.20434000      -1.39976729      -0.31962466       0.80994846
H       -0.91304600      -2.16311200      -1.00325800      -0.07928203       0.03351073       0.14353236
H        0.69052600      -1.48802400      -1.62027000       1.21934834      -1.39717047       0.63099093
I        0.04828900       0.23344400       0.23660000      -0.44105375      -0.82951199      -0.47036176
6
Properties=species:S:1:pos:R:3:forces:R:3 charge=-1.0 dipole_moment="-1.17757275489561 0.1904191274492926 3.0019852731239314" energy=-11.951393552544344 pbc="F F F"
C       -2.18819900      -0.33409000       2.83903700       1.71631896      -2.14148330       0.74513969
H       -2.83884200      -0.33155600       1.90368100       0.98785545      -0.00533761       1.79857524
H       -2.46525100       0.11315000       3.77770800      -0.53375129       1.99491292      -0.58246238
H       -2.06324800      -1.34821900       3.47188600       0.33513201       1.25739141      -2.86483340
Br      -0.25119600       0.45112200       2.22461600      -2.49720933      -1.10304962       0.91295355
Br       0.83681200      -0.34908900      -2.97283000      -0.00895104      -0.00280713      -0.00897007
6
Properties=species:S:1:pos:R:3:forces:R:3 charge=-1.0 dipole_moment="-0.9896788610951281 -0.3891812628003347 1.1251678065562625" energy=-13.721109880910564 pbc="F F F"
C       -2.30770100      -0.96032800       2.34352100      -0.81807007       1.65284510       0.78459481
H       -2.40272200      -1.99241100       2.47210500      -0.01426757      -1.49336573       0.27066879
H       -1.59604700      -0.70571800       1.61969800       0.73358721       0.13917177      -1.36073023
H       -3.28959500      -0.51364400       2.12888800       0.52924980      -0.08189118       0.16641466
Cl      -1.62016000      -0.22723300       3.84112000      -0.36624390      -0.18431263       0.09416100
I        0.91843900       0.24220200      -1.61473300      -0.06375462      -0.03154950       0.04656731
6
Properties=species:S:1:pos:R:3:forces:R:3 charge=-1.0 dipole_moment="0.5693946785666931 2.793246030644919 -2.599942887398053" energy=-13.582243985126578 pbc="F F F"
C        0.81966000       0.21646300      -1.01392300       0.54378013       0.82299424      -0.74775707
H        0.61638200      -0.73772300      -0.49792100      -0.62873401       0.80505823      -0.25348868
H        1.77073800       0.60733200      -0.70292800       0.28684257       0.08156260       0.72414509
H        0.96276700       0.18623600      -2.09255900      -0.44579795      -0.84157612       0.05090373
Cl      -0.33679700       1.62585200      -0.84664800       0.18771574      -0.92895558       0.34519531
F       -0.28247800      -3.22156700       2.64110700       0.05539031       0.06192502      -0.11896392
6
Properties=species:S:1:pos:R:3:forces:R:3 charge=-1.0 dipole_moment="0.25348752575871236 0.09993405786056031 0.3768424377816176" energy=-15.230837061865047 pbc="F F F"
C        1.20068000       0.70607400       1.89826300       0.80311447       3.81472548      -2.78544596
H        2.03833100       0.21559300       1.45741300       0.46939914      -0.22156946      -0.56487501
H        0.74215400       1.50924900       1.25553200       0.72326680      -1.34200745      -0.06648513
H        0.45791500       0.05732500       2.07410300      -2.57073414      -2.46215388       1.29826321
F        1.62288300       1.42200100       2.96929700       0.72151279       0.37545359       2.38513185
I       -0.47261200      -0.35503100      -0.80944000      -0.14668453      -0.16368570      -0.26672729
6
Properties=species:S:1:pos:R:3:forces:R:3 charge=-1.0 dipole_moment="1.8887789882352541 1.2597672051264386 -1.7214266953944395" energy=-12.85293032610027 pbc="F F F"
C       -0.24532100      -0.62887200      -1.75289500      -0.32481366       0.27601154       1.38925250
H        0.38257300      -1.42759400      -1.96501100       1.50024549      -1.31135990      -0.08941115
H       -0.16085400       0.07721700      -2.51080800      -0.11952751       1.19419626      -1.30299867
H       -1.22005700      -1.05067900      -1.65957000      -0.81536424       0.26073508       0.60392750
I        0.43033400       0.38892100       0.02700100      -0.32514430      -0.45377300      -0.38823455
F       -2.25971700      -1.60428000       1.69130300       0.08470346       0.03351228      -0.21265544
6
Properties=species:S:1:pos:R:3:forces:R:3 charge=-1.0 dipole_moment="1.0264662024191051 0.4389736632511288 -3.027645076064172" energy=-12.677151393374118 pbc="F F F"
C       -0.01379000       0.31349600      -1.94202600      -3.16046195      -2.24020750      -4.34630830
H        0.74821100      -0.24921300      -2.54787500      -1.36932234       1.06150162      -0.78433102
H       -0.27426000       1.35009600      -2.34388700       0.67526481      -1.34245739       0.92251343
H       -1.03456900      -0.37470200      -1.95007700       2.40197309       2.00527190      -0.39048221
Cl       0.66306200       0.08176400      -0.47504500       1.43245424       0.52087571       4.63552040
F       -1.18096500      -0.44412800       2.95219600       0.02163069      -0.00486453      -0.03670199
6
Properties=species:S:1:pos:R:3:forces:R:3 charge=-1.0 dipole_moment="-3.0592533600283605 5.534419436238723 -0.5262831403992674" energy=-12.43918534034307 pbc="F F F"
C        0.98097900       0.17184200      -0.83837500       0.27962806      -1.32196930      -3.34665200
H        1.79631800      -0.02922600      -0.13061300      -0.75275221      -0.29935202      -0.21305139
H        1.43401700       0.67627900      -1.76551300      -0.89813474       0.52535355       1.81588802
H        0.54428600      -0.70918100      -1.44458100       1.00988312       0.69470236       1.88852632
I       -0.75635600       0.96130700       0.09700700       0.36140457       0.37626863      -0.13223956
F        3.38070900      -5.76869100       0.35884500      -0.00047925       0.02492376      -0.01202814
5
Properties=species:S:1:pos:R:3:forces:R:3 charge=0.0 dipole_moment="-0.18492626800363993 0.0680151468737705 -0.31508269471392225" energy=-13.08836522465771 pbc="F F F"
C       -0.60558500       0.21231200      -0.89400300      -1.48332815      -1.06120080      -2.19409887
H        0.04326600       0.87971100      -1.44665600       0.05664244      -0.50556479      -0.74134320
H       -1.63181400       0.73474600      -0.99525400       1.47604472      -0.81912833       1.70372827
H       -0.76923300      -0.84429400      -1.32536700       0.45294768       2.05122060       0.04060646
Cl       0.35242900      -0.12023700       0.53713500      -0.50153793       0.33420538       1.19212909
6
Properties=species:S:1:pos:R:3:forces:R:3 charge=-1.0 dipole_moment="-0.5092589803582181 -1.0249739226853152 -1.5649886825215038" energy=-14.989032639583526 pbc="F F F"
C       -1.00970700      -2.01493300      -3.07203000       1.15541220       0.21181007       0.71829223
H       -0.22848000      -2.68893900      -3.41219800      -0.04230391      -0.42901019       0.14454229
H       -1.15058200      -1.33380800      -3.91137400      -0.47594157       0.34381205       0.41579421
H       -1.87904700      -2.53167100      -2.72265600      -0.69636637      -0.40111681      -0.57554097
F       -0.54537000      -1.38243500      -1.92283700       0.04550133       0.23125223      -0.76190534
Br       0.40641900       0.88817000       1.30811300       0.01426551       0.04348044       0.05935598
6
Properties=species:S:1:pos:R:3:forces:R:3 charge=-1.0 dipole_moment="0.0901765592749736 -0.9870922428898921 0.8024607265925361" energy=-12.860971248543887 pbc="F F F"
C       -0.31132600       0.80533900      -0.94832500      -1.97990951      -3.23905544      -1.90726761
H        0.68837900       0.91241800      -1.23535400       0.92481508       0.07407657       0.10804188
H       -0.86856500       1.45508000      -0.37424200      -0.37049342       1.13142792       1.36781413
H       -0.97011500      -0.01853500      -1.45130400       1.66192470       1.99852121       0.69844485
Cl      -0.44919900       2.76383000      -2.48847600      -0.13908898      -0.38418506       0.05375817
I        0.20103100      -1.02200200       0.96330100      -0.09745510       0.41916749      -0.32053637
5
Properties=species:S:1:pos:R:3:forces:R:3 charge=-0.0 dipole_moment="0.34647348684456936 0.0874253669572522 0.11424406798862767" energy=-14.929288179309447 pbc="F F F"
C        0.58423100       0.10887100       0.21200400       0.01608328      -3.37856042       1.28568280
H        1.04865100       0.64576100      -0.52615700       1.70243500       0.79863715      -2.09360730
H        1.02109700      -0.99118600       0.38132800      -0.42522604       2.87855949      -0.06828131
H        0.61405200       0.78154100       1.06056400      -0.36973752      -0.50930112       0.68722045
F       -0.68768700      -0.12103800      -0.24308500      -0.92407049       0.21102022       0.18873236
6
Properties=species:S:1:pos:R:3:forces:R:3 charge=-1.0 dipole_moment="-1.0594656932698663 -0.08163087650157815 1.3388077591823069" energy=-14.696176484220425 pbc="F F F"
C       -2.11049000      -0.08594300       2.72076700       0.25191105      -3.28298171      -3.29423132
H       -2.96837900       0.42914900       2.28484200       0.10973161      -0.10956140       0.37365177
H       -2.28866300      -0.66076000       3.58438900      -0.41145727       0.56340125       2.07133897
H       -1.91819800      -1.11183100       2.06339600       0.05480872       3.07993499       0.58799745
F       -1.03906100       0.74780600       2.77899800       0.02416631      -0.21858595       0.27500933
Br       0.83399200      -0.13917600      -1.40766300      -0.02845800      -0.03169862      -0.01269457
6
Properties=species:S:1:pos:R:3:forces:R:3 charge=-1.0 dipole_moment="2.553983846660583 0.429940608266804 -0.6923331281248846" energy=-13.61446048548035 pbc="F F F"
C       -0.63057800      -0.37977500      -0.25267300      -2.69382675       0.07212665      -2.34273178
H       -0.98420800      -0.85772700       0.60327500      -0.47923824      -0.81514106       1.33004256
H       -0.48928300      -1.03826700      -1.09670400      -0.78970822      -0.55619805       0.05433821
H       -1.42963700       0.34860100      -0.51782400       0.86346650      -0.33114474       0.37951182
Br       1.06485300       0.27794500      -0.12767000       2.78478415       1.60499430       0.68717159
F       -3.39813800      -0.65578100       0.77730600       0.31555306       0.02615018      -0.10867025
5
Properties=species:S:1:pos:R:3:forces:R:3 charge=-0.0 dipole_moment="-0.15237128600975242 -0.19970618749468802 -0.3330853034173042" energy=-13.147846813934978 pbc="F F F"
C       -0.53590500      -0.74109600      -1.25046600      -0.30752762      -0.14510999       0.49931856
H       -0.18432000      -1.78331500      -1.16734900      -0.07544851       0.72516993      -0.30600758
H       -0.21337100      -0.20256600      -2.14456500       0.14829456      -0.33317900       0.32471801
H       -1.62844900      -0.70954400      -1.17913800       0.38985897      -0.02584062       0.00012547
Br       0.14975900       0.20405700       0.34268100      -0.15528642      -0.22138691      -0.51846968
6
Properties=species:S:1:pos:R:3:forces:R:3 charge=-1.0 dipole_moment="-0.029141259808540168 0.0029787385182638614 0.9286652578943277" energy=-13.378790289658408 pbc="F F F"
C       -0.03891200       0.02869100       0.90740800      -0.98629684       0.65104811       1.52299616
H        0.69510100       0.75907200       0.66175900       0.12604371       0.27490083      -0.16639204
H        0.20569300      -0.96241900       0.72287000       0.63134523      -1.37912390      -0.51318606
H       -1.06927100       0.22567000       0.65297400       0.23531921       0.33814329      -0.02847600
Br      -0.05579600       0.00033100       3.00501400      -0.01218754       0.12764705      -0.35721676
I        0.04443000      -0.00388800      -2.12561400       0.00574025      -0.01253413      -0.45758749
6
Properties=species:S:1:pos:R:3:forces:R:3 charge=-1.0 dipole_moment="2.791328821611046 0.17754054167580038 0.552633519599294" energy=-12.177931621921447 pbc="F F F"
C        1.13458500      -1.44333500      -0.92107900      -3.25790471       0.00756110       1.12602397
H        0.17430900      -1.94467700      -0.60579300       1.40818354      -0.09272530       0.32396262
H        1.96669500      -2.13342500      -1.09148400       0.21806196       0.89366462       0.78768374
H        0.70040600      -1.04928500      -1.80110300       0.49530661       0.78118399      -1.30084871
I        0.83965300       0.40701100       0.44020000       0.96842408      -1.50667222      -0.90756709
Cl      -3.18532600      -0.45789400      -0.84151500       0.16725079      -0.08304458      -0.02913677
6
Properties=species:S:1:pos:R:3:forces:R:3 charge=-1.0 dipole_moment="2.79215857147721 -0.8202934694113271 2.6624265448898" energy=-12.434688204617325 pbc="F F F"
C        1.13915200      -1.32931100      -0.64514000       1.63994639      -2.50897727       0.00906828
H        1.07351400      -2.29732500       0.03189400      -0.13934609       1.81505036      -2.02411140
H        2.24183200      -1.25764800      -0.94233000      -1.29885302       0.65048966       1.15326995
H        0.68204400      -1.38034500      -1.65822900      -0.60800424      -0.06363841       1.23409464
I        0.27787800       0.13226900       0.63102400       0.31549032       0.16514660      -0.39251698
F       -2.83998400       0.65565800      -3.00053100       0.08922294      -0.05705844       0.02214491
6
Properties=species:S:1:pos:R:3:forces:R:3 charge=-1.0 dipole_moment="-1.7909685185206865 1.7975514830201007 0.19945218243361737" energy=-12.870377716828491 pbc="F F F"
C       -2.60288500       1.05692800      -0.07175300       0.40093169      -0.19405454      -3.32909239
H       -3.35766700       1.62602100       0.39865200      -0.76484668       0.76017190       0.11268786
H       -2.79229100       0.01619600       0.09728100       0.76314718      -0.58232046       0.73042064
H       -2.55830800       1.12467600      -1.21975800      -0.85580615       0.19018092       1.81528279
Br      -0.90171700       1.80759300       0.34277900       0.50059691      -0.16560374       0.68216463
Br       1.59673300      -2.06783400      -0.30979700      -0.04357506      -0.00976659      -0.01162396
6
Properties=species:S:1:pos:R:3:forces:R:3 charge=-1.0 dipole_moment="-3.5397669051315406 0.1638967656558329 -1.8965076213955392" energy=-13.179943161127573 pbc="F F F"
C       -1.84450700      -0.47462400      -1.47014900      -2.72581230      -4.92024387      -2.83590026
H       -2.30076100      -1.39575600      -1.06679900       0.56873732       0.22897321       0.24900982
H       -0.93431600      -0.36414600      -1.09998300       4.12081122       0.50794769       1.38686446
H       -1.86260800      -0.74435900      -2.55069400       0.36427135       0.91727763       0.53038160
Cl      -2.84931500       0.75542100      -1.05097600      -2.30329723       3.27549928       0.69285116
Cl       3.80018100      -0.44059700       1.84735000      -0.02526366      -0.00901686      -0.02320369
6
Properties=species:S:1:pos:R:3:forces:R:3 charge=-1.0 dipole_moment="-0.36855076006929277 0.014367161266808287 0.12416614068669968" energy=-12.824423107800916 pbc="F F F"
C       -0.52755300      -0.14046900      -0.00715300      -1.39385529       0.92986832      -0.25938628
H        0.45848200      -0.00889100       0.29111200       0.73601793      -0.54519218      -0.52993268
H       -1.15419000       0.58144900      -0.52437300       1.22882131       0.14289884      -0.54793606
H       -1.24056900      -0.86463500       0.33130300       0.70948774      -0.98876407       0.47107859
Cl       0.69368100      -1.13228700      -1.74899300      -0.42699085      -0.35797369      -0.48645327
Cl      -0.39358700       1.19904500       1.74575000      -0.85326281       0.81930368       1.35282511
6
Properties=species:S:1:pos:R:3:forces:R:3 charge=-1.0 dipole_moment="1.3296900358442918 1.2103182406853006 0.19613424132338209" energy=-15.161646957329124 pbc="F F F"
C        2.70171100       2.50083100       0.45914400      -0.69175484      -3.71360295      -1.25967866
H        3.54732400       2.22636900      -0.18089900      -0.21157507       0.36342032      -0.31709469
H        1.93235100       3.05537600      -0.11309400       0.42162238      -0.26603566       0.62008688
H        2.31412400       1.42637800       0.79172200       0.28071821       2.53039045      -0.42657999
F        3.20747900       3.18131600       1.49441700       0.16020751       1.05646740       1.38368504
Br      -1.51061100      -1.43842700      -0.47721000       0.04145750       0.03069332       0.00123567
6
Properties=species:S:1:pos:R:3:forces:R:3 charge=-1.0 dipole_moment="2.699148797416877 3.4465311724022976 2.365803138811976" energy=-12.609578751681877 pbc="F F F"
C        0.61351000      -0.44827500      -0.36750700      -0.34580620       0.26351958      -1.97473850
H       -0.39767300      -0.98182600      -0.34991300       1.20170285       1.50231574      -0.05546744
H        1.34142400      -1.24568200      -0.24425700       0.36001412       0.41355838       0.89664453
H        0.91592900       0.03336900      -1.36949900      -1.16018262      -0.91355930       1.49672205
I        0.79932000       1.34027400       0.94635500      -0.12616918      -1.32784684      -0.41718003
Cl      -2.81792300      -3.89122000      -2.70518100       0.07040812       0.06242896       0.05433101
6
Properties=species:S:1:pos:R:3:forces:R:3 charge=-1.0 dipole_moment="0.852885493809954 1.1272003762220382 -0.5791897487342298" energy=-13.208352922025092 pbc="F F F"
C        0.17505000       0.65691700      -1.42979300       1.11484121      -2.85268802      -1.05267399
H        0.57903300       1.11015100      -2.31501500      -0.15552244       0.47175170      -0.48949797
H       -0.89313700       0.73392600      -1.33374100      -0.07888094       0.35637138       0.50678915
H        0.40414700      -0.48359100      -1.51465300      -0.47281408       2.21988601       0.59996902
Br       1.22933600       1.40918000      -0.01143200      -0.18737738       0.08525419       0.29120779
Br      -1.26191800      -1.56066500       0.40406500      -0.22111386      -0.28098817       0.14353339
6
Properties=species:S:1:pos:R:3:forces:R:3 charge=-1.0 dipole_moment="-0.012202826475602177 -0.0014816961895787553 0.7473040567582564" energy=-14.94136468706148 pbc="F F F"
C       -0.02466000      -0.00660500       1.76781200       1.10863251      -0.11015018      -7.91868260
H        0.88254100      -0.53027300       1.35555400      -0.90653813       0.44738227       0.17907889
H       -0.90028900      -0.50290500       1.34225100       0.03567869       0.04583146       0.14092217
H        0.00856200       1.01687800       1.36426100      -0.10179358      -0.32063561       0.02739151
F        0.00535200      -0.01023900       3.01016000      -0.12676825      -0.06807356       8.45525593
Br       0.00311300       0.00423100      -1.19315400      -0.00915313       0.00569705      -0.88445235
6
Properties=species:S:1:pos:R:3:forces:R:3 charge=-1.0 dipole_moment="0.2613198776522677 0.2574304251546235 -0.1676200565093601" energy=-12.377135912585507 pbc="F F F"
C        0.11871600       0.53993800       0.22845700      -1.20109556      -1.57675741      -2.13476346
H        0.08816000      -0.56520100      -0.13933700      -0.14807601       2.98031965       0.97020637
H        0.73103900       0.84211000       1.03576000       0.75230638      -0.25535787       0.58119329
H       -0.61272800       1.35411400      -0.04828200       0.81838117      -1.67254027      -0.07245883
I        1.78651000       0.76052600      -1.84288000      -0.21433746       0.29275457       0.48746937
I       -1.80384500      -0.85242500       1.80101400      -0.00660002       0.23155203       0.16812496
6
Properties=species:S:1:pos:R:3:forces:R:3 charge=-1.0 dipole_moment="-5.034912133516776 0.52261594233006 2.76137527478429" energy=-12.58348184590668 pbc="F F F"
C       -1.12559800      -1.00906800      -0.96825100      -1.29154389       0.14793717      -0.47046461
H       -0.74289700      -0.71029000      -1.99285300      -0.39513025       0.13018576       1.63787563
H       -2.24147200      -0.88918500      -0.84897600       1.29086461      -0.54681969      -0.85142036
H       -0.82420500      -2.04921500      -0.77573100      -0.00987612       0.64471702       0.27003270
I       -0.65438600       0.31158500       0.70219400       0.42590224      -0.36319766      -0.57332365
F        5.02718300      -0.75676400      -3.08768900      -0.01954090      -0.01293059      -0.01280152
6
Properties=species:S:1:pos:R:3:forces:R:3 charge=-1.0 dipole_moment="-1.8633181559261853 0.7139944680621048 -0.0884890131504855" energy=-13.447715058139536 pbc="F F F"
C       -3.80153600       1.38907400      -0.38481600       0.60707658      -2.74593118       1.73364203
H       -4.20048500       0.35060200      -0.19410400       1.12523156       0.85111491      -0.59258687
H       -2.72472700       1.49152600      -0.14676600      -0.69246293      -0.31279889      -0.92447569
H       -4.18974100       1.71512300      -1.28754900       0.18975617       0.54925864      -2.04131825
Cl      -4.63657900       2.29904500       0.79801500      -1.19410473       1.64494205       1.83283982
I        2.12728300      -0.96180100      -0.18167800      -0.03598362       0.01409273      -0.00744489
5
Properties=species:S:1:pos:R:3:forces:R:3 charge=-0.0 dipole_moment="0.3697202417046389 0.20242086658488054 -0.028189270006735816" energy=-14.42317847691495 pbc="F F F"
C        0.54903900       0.28703100      -0.07465900       2.72248683       1.70842876       1.05958203
H        0.80994100       1.29666500       0.48971300      -2.42633738      -1.35376973      -0.83292076
H        0.81279400       0.57324200      -1.14757900      -0.74222149      -1.18348607       1.35973469
H        1.43963800      -0.19136700       0.49650200      -1.83317355      -0.74318051      -1.59759466
F       -0.70629000      -0.37785900       0.06770200       2.27860230       1.57176073       0.01122287
5
Properties=species:S:1:pos:R:3:forces:R:3 charge=0.0 dipole_moment="0.3369377135102089 -0.15703333723481988 0.3806107086980427" energy=-12.870996742328481 pbc="F F F"
C        0.71894100      -0.41542800       0.97613300      -1.23531849       2.64317550      -0.79747193
H        0.38946100      -1.43148300       1.31647800       0.07631343       1.60519999      -0.03712056
H        0.85342400       0.56036200       1.60914600      -1.17879535      -2.46254520      -0.45273788
H        1.63767600      -0.40292200       0.46944200       1.19919089      -0.80899459      -0.74709219
Cl      -0.42318900       0.22156500      -0.54422700       1.13760473      -0.97630245       2.03330875
6
Properties=species:S:1:pos:R:3:forces:R:3 charge=-1.0 dipole_moment="0.08266277206217762 -4.6055880167002785 0.198081613458257" energy=-12.953900909623009 pbc="F F F"
C       -0.50255800      -1.63324700      -1.10282500       1.54234422      -2.83612035      -0.50636749
H       -0.03090000      -2.71612800      -1.12667900      -1.08761529       2.18373218       0.15894355
H       -0.21387300      -1.17222500      -2.04276200      -0.00708185       0.40874887       0.28608307
H       -1.56431900      -1.71328400      -1.01701600      -0.52375329       0.03530793       0.05469200
Br       0.19301600      -0.73167000       0.43392600       0.08197500       0.20055635       0.02122394
F       -0.21456800       4.55662100      -0.48711000      -0.00614854       0.00844042      -0.01524407
6
Properties=species:S:1:pos:R:3:forces:R:3 charge=-1.0 dipole_moment="-0.03831772181692774 -0.006286625261498433 1.4726208004175851" energy=-13.470637453939334 pbc="F F F"
C       -0.04259600      -0.08335300       0.44019200      -0.19018092       1.28030148      -0.47869522
H        0.07409700      -1.12174000       0.20885500       0.07756607      -0.17860015      -0.24419825
H       -1.05685300       0.29228300       0.21141300       1.08522827      -0.28293347      -0.37163808
H        0.79330500       0.55333600       0.06101400      -1.17049532      -0.78353655       0.31003238
Br      -0.02624400       0.05127400       2.37655700       0.20194988      -0.00808561       1.40134029
Br       0.03895900      -0.02909600      -2.46577000      -0.00401915      -0.02719199      -0.61782482
6
Properties=species:S:1:pos:R:3:forces:R:3 charge=-1.0 dipole_moment="-0.9678069086281034 -3.800635394623197 -2.0650082287832774" energy=-13.14234975387925 pbc="F F F"
C       -0.76906500      -1.19957600      -1.57083000       2.76078856       0.06472650      -2.15003170
H       -0.10577600      -1.41165800      -2.45363500      -0.42733126      -0.61058203       1.11179548
H       -1.07980500      -0.24339200      -1.84127800      -0.71308060       1.95470909       0.70671918
H       -1.53411800      -1.84497800      -1.45270900      -2.79895865      -1.93364353      -0.81805567
Cl       0.00044800      -1.44483900      -0.05087300       1.18625927       0.50298906       1.16297484
F        0.81405200       3.91775100       1.78193800      -0.00702940       0.02215108      -0.01142187
5
Properties=species:S:1:pos:R:3:forces:R:3 charge=0.0 dipole_moment="0.11342913508435935 -0.349786136182699 0.2385372112058627" energy=-12.15826903571104 pbc="F F F"
C        0.49417800      -1.22660300       0.93980700      -0.19190715      -1.05158384      -0.81539560
H        1.54837400      -1.50712400       0.34817600      -3.17272508       0.36371959       2.25193430
H       -0.43165500      -1.90242700       0.76294700       2.24318329       0.61337064      -0.08004565
H        0.48256600      -1.12969600       2.11857400       0.62980719       0.71172717      -2.70716923
Br      -0.13041000       0.33996800      -0.25338700       0.49137899      -0.63624832       1.34932841
6
Properties=species:S:1:pos:R:3:forces:R:3 charge=-1.0 dipole_moment="-0.8204871482703935 -1.3339869547940701 -1.3179333057571951" energy=-12.933030520586609 pbc="F F F"
C       -1.12982100      -1.93455600      -2.28462800       1.03990075      -1.15573256      -1.09261505
H       -0.33482500      -2.05262400      -3.09978300      -0.81097588       0.40878949       1.39049075
H       -2.03788900      -1.61479800      -2.82704000       0.25723066      -0.13466051       0.86707478
H       -1.19532900      -2.90722500      -1.76339700      -0.54060945       0.36830901      -0.84574234
I       -0.48346900      -0.72657400      -0.62930900       0.19665804       0.72494059      -0.21977123
Br       1.02773800       1.61972600       1.56432600      -0.14479888      -0.21389523      -0.09843161
6
Properties=species:S:1:pos:R:3:forces:R:3 charge=-1.0 dipole_moment="0.03250682686772619 -0.10623602926116506 -0.4893492169879642" energy=-12.872277344785441 pbc="F F F"
C       -0.11932700      -0.14812500       0.53764400       2.67535542       2.10700737       0.07233954
H        0.63063600      -0.84457400       0.71698800       0.50750135      -1.40965884       0.18127256
H       -1.10841500      -0.31663200       0.44890900      -2.73008445      -0.68996176      -0.09367198
H        0.27887000       0.83814600       0.47821300      -0.35069130       0.31533143      -0.03241339
Br      -0.25722700       0.33538300       3.00632200      -0.07578327      -0.16546901      -0.13426867
I        0.18712900      -0.19861500      -2.07719400      -0.02639083      -0.15722348       0.00685662
6
Properties=species:S:1:pos:R:3:forces:R:3 charge=-1.0 dipole_moment="-0.9841045083590486 -0.6983350560470997 -2.566268166426613" energy=-12.202746907881112 pbc="F F F"
C        0.42131700      -1.12527200      -3.01439100      -0.67830386      -2.44169664      -2.81568470
H        1.18299400      -1.32500800      -2.30483700       0.22397858      -0.30348584       0.96156694
H        0.96328400      -0.81239300      -3.94582400      -1.06469390       1.43257457       0.94342164
H       -0.02863300      -2.06816700      -3.48245200       0.94949613       0.74486921       1.30772539
I       -1.35531300      -0.38888000      -2.08113600       0.55620936       0.58426678      -0.37260995
I        1.26766100       0.59562000       2.60603100       0.01272902      -0.01653734      -0.02364541
6
Properties=species:S:1:pos:R:3:forces:R:3 charge=-1.0 dipole_moment="1.8480455724521025 4.466377367917249 0.49539982921355113" energy=-13.417692599418634 pbc="F F F"
C        0.22886500       1.51916500      -0.65797700      -1.65723963       1.01118667      -1.57183941
H       -0.85401200       1.48798300      -0.45757700       0.36917650       0.67055558      -0.44905760
H        0.39190500       0.61528200      -1.20188100       0.76454689      -0.50910109      -0.29185006
H        0.61934800       2.42674000      -1.15850600      -0.99699058      -0.78863248      -0.46534194
Cl       0.99287300       1.60743300       0.83535000       1.51816300      -0.40959939       2.79314024
F       -2.04547500      -4.55237200      -0.82612500       0.00260967       0.02590438      -0.01451028
6
Properties=species:S:1:pos:R:3:forces:R:3 charge=-1.0 dipole_moment="0.05610865963608408 -0.01222399356402473 -0.3680162910866233" energy=-13.20718546463872 pbc="F F F"
C        0.11569900       0.00275300      -0.09045200      -0.75776484       0.14318166      -0.67896875
H        0.37819500       1.04399900       0.00868200      -0.14118186      -0.23101878      -0.18044466
H        0.92168900      -0.71080900      -0.07369400      -0.41529336      -0.05970616       0.38805406
H       -0.94618000      -0.26987600      -0.12437100       1.10643319       0.05771407       0.41017789
Br      -0.11000000       0.12493200       2.48590800       0.07715316      -0.07061844      -0.01440332
Br       0.08006000      -0.12721300      -2.46499100       0.13060742       0.16041011       0.07630469
6
Properties=species:S:1:pos:R:3:forces:R:3 charge=-1.0 dipole_moment="-1.1263198253436597 -0.34952578099510156 0.8568088136490746" energy=-14.313869476409685 pbc="F F F"
C       -3.31448500      -0.67818900       2.39905100       5.47696025       5.29450807       3.83490350
H       -3.88837200      -0.14238700       3.30804200       1.88881171      -1.17763784      -1.50885766
H       -2.23349700      -1.11772700       2.63008300      -3.05641043       0.18407095       0.05559445
H       -4.03309000      -1.22102500       2.02490500      -3.13270689      -3.41664206      -2.78880690
F       -2.89841700       0.37552400       1.52878100      -1.21578633      -0.84397702       0.40258593
I        1.05901200       0.05982200      -0.68144100       0.03913374      -0.04001357       0.00526562
6
Properties=species:S:1:pos:R:3:forces:R:3 charge=-1.0 dipole_moment="0.20404226555804814 -0.11779696378035329 -1.3688533828437004" energy=-12.968428538546588 pbc="F F F"
C        0.09798200       0.09504200       0.30529600       4.17470720       0.73836535      -0.95990653
H        0.76416500      -0.72406000       0.62898100      -1.06436017       0.72942562      -0.14054628
H       -0.89879900       0.13345200       0.42690100      -3.01148039      -0.62069366       0.47526074
H        0.53001000       1.10988100       0.37011900      -0.09726381      -0.97107848       0.02267919
Br      -0.34109000       0.31269200       2.99002800      -0.00199003       0.07621676       0.42251558
I        0.20669600      -0.22705200      -2.03601400       0.00060781       0.04768060       0.17911951
6
Properties=species:S:1:pos:R:3:forces:R:3 charge=-1.0 dipole_moment="0.9111352044399795 -1.660487177003118 1.819461536246286" energy=-12.601710589605869 pbc="F F F"
C        0.24485000      -2.53788600       2.24442700      -0.09826551       1.70485030      -0.33738481
H        0.45488700      -3.57389600       2.30709700      -0.87124151      -0.75048399       0.30479196
H       -0.46935200      -2.13825700       1.53649700       0.82762531      -0.62812312      -1.71500410
H       -0.18274100      -1.94849000       3.00180700      -0.51193496      -0.70424115       2.37277461
Br       2.00455400      -1.76799000       2.27758700       0.67459736       0.40898181      -0.65259951
I       -1.34776000       1.59938900      -1.88731200      -0.02149185      -0.03149807       0.02725524
5
Properties=species:S:1:pos:R:3:forces:R:3 charge=-0.0 dipole_moment="-0.11211677560216103 -0.1890697255623548 -0.29967305434230324" energy=-15.183877069632024 pbc="F F F"
C       -0.19021800      -0.32275000      -0.49670400      -2.22670355       0.48151212      -0.77510796
H        0.65180900      -0.62315400      -1.08402100       0.49076758      -0.63657177      -0.08178628
H       -0.83158900       0.32176400      -1.19710500       0.83473287      -0.59629749       1.25448452
H       -0.84354700      -1.13370200      -0.10920300       0.71319065       0.20919011      -0.60302195
F        0.24051500       0.37462100       0.59672800       0.18774608       0.54302114       0.20509794
6
Properties=species:S:1:pos:R:3:forces:R:3 charge=-1.0 dipole_moment="1.661134889908848 -1.6572613127275209 0.5272086713405437" energy=-13.21267784918175 pbc="F F F"
C        0.22735300      -1.34122600      -0.91795200      -2.31597637      -0.68908295       2.35382044
H        0.91876100      -1.99823500      -1.32265500       1.80383006      -0.79715877      -0.72779451
H       -0.20856000      -0.66968000      -1.63370900      -0.12924474       0.68318947       0.23089588
H       -0.55028500      -2.02020200      -0.45009300       0.58749043       1.11380660      -0.84451335
Br       0.95362100      -0.45948400       0.69973800       0.00324987      -0.16886904      -0.90436452
Cl      -2.05298700       1.69514200      -0.91627400       0.05044299      -0.14183749      -0.10823934
6
Properties=species:S:1:pos:R:3:forces:R:3 charge=-1.0 dipole_moment="0.010021558013658026 0.022595866891076018 -1.77992511931343" energy=-13.122571137264767 pbc="F F F"
C        0.05231600       0.00245100      -0.54283800      -0.14472175       0.71745971       1.26951056
H        0.42688700       0.94587300      -0.15019300       0.05009229       0.02420437      -0.48603264
H       -0.93359800      -0.10475500      -0.10952800      -0.18040918      -0.18540123      -0.41314597
H        0.68168900      -0.75950300      -0.12480400       0.24067584      -0.49535031      -0.37557392
I       -0.00722300       0.02227700      -2.66093400       0.03043158      -0.06205512      -0.31341030
I       -0.00200100      -0.02409400       2.72964300       0.00388031       0.00114671       0.31761765
6
Properties=species:S:1:pos:R:3:forces:R:3 charge=-1.0 dipole_moment="-0.16200760301411996 0.07028531710708938 0.39851806550352314" energy=-14.939958238756915 pbc="F F F"
C       -0.53682600       0.21604300       1.49509100      -4.96789053       0.21467427       1.28202155
H       -1.44175600       0.78502100       1.06206600       1.90997292      -0.94078677      -0.07814560
H        0.37132300       0.70706900       1.31408200       1.10266293      -0.15339614      -0.13352665
H       -0.76807700      -0.84670900       1.48041400       1.25488973       0.14221595      -1.50559442
F       -0.89218000       0.32599200       2.89953100       0.46037560       0.86137465       1.35667508
Br       0.37397400      -0.13930200      -1.11208300       0.23950496      -0.12397140      -0.92046374
6
Properties=species:S:1:pos:R:3:forces:R:3 charge=-1.0 dipole_moment="2.3700524318128036 -2.6680479943976194 0.12376396600667117" energy=-13.523647379204064 pbc="F F F"
C        1.22298300      -1.90475500      -0.69635900      -0.45551930       2.24363683       2.00014203
H        0.21731700      -2.19426600      -0.57827200      -1.05519007      -0.45218457       0.50442271
H        1.78425500      -2.64242500      -1.09531200       1.66576387      -2.21557838      -1.56719034
H        1.21239700      -0.99733700      -1.27169700       0.42165529       0.41141973       0.03090672
Cl       1.99926100      -1.64514700       0.95977200      -0.59326667       0.04873629      -0.94003858
Cl      -2.61995900       2.66059100      -0.54074600       0.01688598      -0.03584581      -0.02741105
6
Properties=species:S:1:pos:R:3:forces:R:3 charge=-1.0 dipole_moment="-0.30755673642528336 -0.23792759905929314 0.5167420752928015" energy=-12.769014049355011 pbc="F F F"
C        0.01201200      -0.34065800       0.08499500       1.53724316       0.36280222       1.64036960
H       -0.24752900      -1.17704400      -0.52064500      -0.67142513      -0.08632582      -0.27103440
H        1.01707500      -0.48043500       0.56988200      -1.43674592       0.46411912      -0.49955767
H       -0.32642300       0.67080600      -0.08410900      -0.03875733      -0.55248743      -0.03789498
I        1.43462200       0.65418000      -2.18241500       0.18832355      -0.05103229      -0.21636092
I       -1.44434300      -0.59699800       2.17345100       0.42141567      -0.13695188      -0.61530411
6
Properties=species:S:1:pos:R:3:forces:R:3 charge=-1.0 dipole_moment="-0.006741717662583336 -0.01816136186655103 0.6410399811049315" energy=-14.865538887090866 pbc="F F F"
C        0.00491400      -0.06315100       1.61645100       1.02420159      -0.78271277      -3.93096300
H        0.81481600      -0.83149600       1.50384100      -0.74239684       0.69637254      -0.35530437
H       -0.90322300      -0.33561100       1.05770600       0.90440103       0.16687952      -0.10395074
H        0.37897400       0.92340900       1.31991000      -0.15343676      -0.40537918      -0.11091226
F       -0.34913600      -0.03994400       2.85325100      -1.27531869       0.27988825       6.33626002
Br       0.08063300       0.02806000      -1.12169800       0.24228535       0.04489712      -1.83348157
6
Properties=species:S:1:pos:R:3:forces:R:3 charge=-1.0 dipole_moment="0.4893195830641726 -0.739482817586123 -0.8073021688919847" energy=-13.427522002241526 pbc="F F F"
C        0.29089000      -0.16245700      -0.19816000      -0.45852852       2.41109485      -0.93206816
H       -0.53450500      -0.33476700       0.50739400       0.77077668      -0.79408476      -0.73142183
H        1.16269700       0.26305200       0.28410800       0.44596405      -1.16596812       0.40231648
H        0.02125900       0.79225900      -0.73481200      -0.29277977      -1.53808493      -0.00551502
Cl       0.64495300      -1.44169300      -1.40564500       0.30270885      -0.51593920      -0.22757813
Cl      -0.78582300       1.45664600       1.47225000      -0.76783945       1.60138550       1.49302378
6
Properties=species:S:1:pos:R:3:forces:R:3 charge=-1.0 dipole_moment="2.072012947519511 2.4533581541858163 2.581393638636159" energy=-12.938838193603454 pbc="F F F"
C        0.13945400      -1.03619200      -0.73352700      -2.40215924       0.67511106      -1.12200276
H       -1.00602100      -1.09876900      -0.85072700       2.00913832      -0.16094233       0.12996825
H        0.51889000      -1.80751000      -0.11084500       0.23818136      -0.70161554       0.15444464
H        0.57785700      -1.02015000      -1.77798000      -0.19896226       0.57335553       1.63146895
I        0.37658700       0.70749400       0.65808500       0.16951233      -0.55800090      -0.98408364
F       -2.32072800      -3.03928800      -3.08197900       0.18441856       0.17207778       0.19023182
5
Properties=species:S:1:pos:R:3:forces:R:3 charge=-0.0 dipole_moment="0.3766789220235534 0.06353301590029477 -0.012864297988806978" energy=-15.036230655016082 pbc="F F F"
C        0.62560300       0.11102000      -0.01251900       0.41635831      -2.63735349      -0.96191456
H        1.18762600      -0.68415200      -0.64439300      -1.26144655       0.96377398       1.01634070
H        0.86743100      -0.05352600       1.01826000       1.12556477       0.76871722       0.37520728
H        0.81715700       1.02625300      -0.51824200       0.25956574       1.07981147       0.35986448
F       -0.73620300      -0.10607700       0.02438800      -0.53984840      -0.17522635      -0.78961515
6
Properties=species:S:1:pos:R:3:forces:R:3 charge=-1.0 dipole_moment="-2.6488007608949915 -0.09675952377438779 3.474486546081964" energy=-12.752884335645568 pbc="F F F"
C       -2.04278100      -0.83282100       0.70321700       1.62884128       2.17074605      -1.85272834
H       -1.34314100      -1.62299700       0.42386300      -0.14476957       0.21783673       0.29350019
H       -2.00809500      -0.00514900      -0.11506200      -0.29622093      -1.74983175       1.45789633
H       -3.01111500      -1.18594800       0.90286200      -1.13659223      -0.37170390       0.12928485
I       -1.36063700       0.19838600       2.45971100      -0.02097403      -0.25587158      -0.03855369
Br       2.59236500      -0.07724100      -3.87987500      -0.02986182      -0.01096987       0.01109071
6
Properties=species:S:1:pos:R:3:forces:R:3 charge=-1.0 dipole_moment="-0.0510973514520445 0.2831325622717093 -0.7620479921989863" energy=-13.033082522279875 pbc="F F F"
C       -0.10330400       0.51685800      -1.83764700      -2.82661549      -0.78653291      -0.77923561
H       -0.62518300       0.32037700      -2.74638700       0.22115963      -0.66427026      -1.40463490
H        0.66940800      -0.19862500      -1.63634500      -0.27727087      -0.08396555       0.55035650
H       -1.00037300       0.63825100      -1.21947500       1.15448506      -0.99584489       0.74665356
Cl       0.46330800       2.08894400      -1.97764900       1.71174343       3.14201685      -0.36204683
I       -0.11887300      -0.74289100       0.94807800       0.01670600      -0.61048072       1.24849436
6
Properties=species:S:1:pos:R:3:forces:R:3 charge=-1.0 dipole_moment="0.055286318250867876 0.9910356714630137 0.07712175749036362" energy=-13.394219764713261 pbc="F F F"
C        0.25036700       2.53546900       0.07297600      -6.58874597      -2.11862773      -0.31669566
H       -0.00552700       1.49647800       0.29408200       1.19569110      -0.29631452      -0.92455540
H        1.22193300       2.73976700      -0.04716800       3.37721676       1.04571093      -0.25565869
H       -0.48845900       2.77022500      -0.77318900       1.71850646       0.13144252       1.03089263
Cl      -0.54820300       3.13488300       1.56451400       0.29661380       1.20365998       0.47651595
I        0.13376100      -1.42476000      -0.50015700      -0.00010284       0.03432989      -0.00947554
6
Properties=species:S:1:pos:R:3:forces:R:3 charge=-1.0 dipole_moment="-0.22738744737928254 0.13223609314779827 0.10017853773184077" energy=-13.306299259180028 pbc="F F F"
C       -0.26949900      -0.05746400      -0.00723000       0.71977421       0.89922180       1.00180008
H       -1.14411800      -0.35173500      -0.41257500      -2.91270837      -0.47118811      -0.95759922
H        0.06923300      -0.60224300       0.79026000       0.70712027      -0.51813595       1.78789951
H        0.36640500       0.43061900      -0.62723500       1.50628141       1.54581059      -0.99963470
Cl       0.85511100      -1.74618700      -1.12014400       0.25957294      -1.03165059      -0.62270838
Cl      -0.71831800       1.79725500       1.13737500      -0.28008469      -0.42331725      -0.20946470
6
Properties=species:S:1:pos:R:3:forces:R:3 charge=-1.0 dipole_moment="-0.0028363898486221885 -1.7736273813305095 -0.06053258111639779" energy=-13.454119953690036 pbc="F F F"
C       -0.36578400      -1.24768000      -0.77724700       2.26961783       0.32491187      -2.66771205
H        0.31145200      -1.51496500      -1.61976200      -0.33181271      -0.47754902       0.74834431
H       -0.66761900      -0.28976900      -1.09083900      -0.33043666       1.75665752       0.97336111
H       -1.13656700      -1.88426400      -0.66907600      -2.92589813      -2.08790922      -0.72765927
Cl       0.38928300      -1.49246700       0.72872800       1.37597687       0.45466518       1.80082033
Cl      -0.17237500       2.14982400      -0.25560100      -0.05678230       0.02944325      -0.12623346
6
Properties=species:S:1:pos:R:3:forces:R:3 charge=-1.0 dipole_moment="-0.007493678478794558 0.5321136149052599 1.1734605187923184" energy=-14.457532112655251 pbc="F F F"
C       -0.30877500       1.08384100       3.59659100      -5.38162117      -2.02373653      -2.73612551
H        0.36396700       1.10779900       4.25879500       6.24574021      -0.81477083       4.66451216
H       -1.04366400       1.56209600       4.17034000      -1.79200967       1.36090197      -0.17906089
H        0.00525300       1.56655100       2.71912800      -0.13816390       0.08660196      -1.47410971
F       -0.83417800      -0.24417500       3.45871000       1.04094359       1.32829216      -0.28753214
I        0.18933400      -0.16116800      -1.20483400       0.02541484       0.06274726       0.01200500
5
Properties=species:S:1:pos:R:3:forces:R:3 charge=-0.0 dipole_moment="0.13857563613035306 -0.28128414627520976 0.11055041105889206" energy=-11.457909255207168 pbc="F F F"
C        0.88575900      -0.89287400       0.48989700       2.36326513      -7.69993364       2.52232798
H        0.99763700      -1.84429900      -0.08241600       1.18344802       1.45522856      -1.97271144
H        0.30594100      -1.70799000       1.00000000      -0.35703987       1.57238294       1.74864339
H        1.83846100      -0.84473700       1.07980600      -1.09864686       1.28773609      -0.74234079
Br      -0.24161700       0.27869300      -0.14105100      -2.09054511       3.38397671      -1.55515140
6
Properties=species:S:1:pos:R:3:forces:R:3 charge=-1.0 dipole_moment="0.03143312630749216 0.6155865572768108 1.0571108546828571" energy=-13.318338941444134 pbc="F F F"
C        0.39446100       0.33345600       0.28556100      -0.63397341       2.53895171       1.90963971
H        0.98478600       1.29468800       0.23292400      -0.36844014      -1.57091073      -0.94789690
H       -0.49372600       0.25541300      -0.34819800       1.44301942      -0.47191985       0.09805057
H        0.93108100      -0.46435300       0.77769300       0.00896595      -0.44049582      -1.41078652
Cl       0.28661800      -1.01595600      -2.00256900       0.24792224      -0.58222635      -1.05139358
Cl      -0.50949500       0.83439800       1.86281700      -0.69775580       0.52690084       1.40297140
6
Properties=species:S:1:pos:R:3:forces:R:3 charge=-1.0 dipole_moment="0.38072183591226116 -0.6991013046479961 -4.580335680212173" energy=-12.589393194932924 pbc="F F F"
C       -1.20341000      -0.77788800      -1.49056700       0.21758014       2.75248647      -0.49390484
H       -1.86076900       0.14596500      -1.51595000       0.31535971      -1.46540036       1.20536873
H       -1.32771400      -1.55171100      -0.72298000      -0.69599151       0.28267636      -0.95194947
H       -1.23283900      -0.94649100      -2.59651000       0.98910603      -0.98818866       1.17864726
Br       0.52820200       0.05460200      -0.77577000      -0.80315098      -0.56995859      -0.94526255
F       -0.76058800       0.56761100       4.54786600      -0.02195259      -0.01142033       0.00762024
6
Properties=species:S:1:pos:R:3:forces:R:3 charge=-1.0 dipole_moment="0.0720527689903726 -0.1635422169247551 0.9363737823206113" energy=-14.116048116491935 pbc="F F F"
C        0.01680200      -0.14555700       0.84549700      -1.53363384      -0.37676126      -4.22802931
H        0.16907000      -1.10190600       0.27624300       0.37071865       1.04157094       0.75868581
H       -1.08270600      -0.02775800       0.86821500       0.48502168       0.79257346      -0.98908443
H        0.65908300       0.68073400       0.49548500      -0.87648708      -0.60367090       0.07748946
F        0.28451000      -0.30956300       2.07803600       2.09826665      -1.43423550       7.99675570
Cl      -0.14157900       0.24166700      -1.49501500      -0.54396165       0.58035099      -3.61570768
6
Properties=species:S:1:pos:R:3:forces:R:3 charge=-1.0 dipole_moment="0.28684579875823574 -0.029337584553659354 1.5128541437367542" energy=-13.117120914485536 pbc="F F F"
C       -0.70324500      -0.54936100       1.17059400      -0.09070133       2.25853381      -0.10087673
H       -1.36060300       0.37449300       1.14521200       0.34744297      -1.41839956       1.02750186
H       -0.82754800      -1.32318400       1.93818200      -0.63919223       0.34934713      -0.75463169
H       -0.73267300      -0.71796400       0.06465100       1.06671427      -0.73792620       0.72841312
Br       1.02836800       0.28312900       1.88539100      -0.58022655      -0.46119886      -0.67847869
Br      -0.82436000      -0.14133400      -2.17600900      -0.10285236       0.01043868      -0.22216441
5
Properties=species:S:1:pos:R:3:forces:R:3 charge=0.0 dipole_moment="-0.22161412401203104 0.05872808682837509 -0.3115848333520953" energy=-13.315999271426783 pbc="F F F"
C       -0.59249500       0.17376600      -0.92031100      -1.67477610       2.26711255       1.57920922
H       -0.97819600       1.26070500      -0.89675000       1.03852984      -1.67071427      -0.50048687
H       -1.44994700      -0.41764700      -0.65460400      -0.42194429      -0.52391527      -1.27395806
H        0.05536500      -0.09809200      -1.70776600      -0.18280853      -0.19279727      -1.26199266
Cl       0.34869100      -0.10515100       0.51652900       1.24159507       0.11996974       1.45842444
6
Properties=species:S:1:pos:R:3:forces:R:3 charge=-1.0 dipole_moment="-2.384860926873222 3.4513239303983743 3.714707599171841" energy=-12.847699488954227 pbc="F F F"
C       -1.28841000       0.12099800      -0.32432600       1.35974344       0.36090424      -0.01182913
H       -0.44933000      -0.42695700      -0.70454600       0.44492738      -0.36728623      -0.03345725
H       -1.49707500       0.87149200      -1.06193700      -0.70459853       0.18557607      -0.08055370
H       -2.04968500      -0.57259800      -0.05819200      -0.77810124       0.00293723       0.24758851
I       -0.51955300       1.18031900       1.38959500      -0.28978957      -0.20714506      -0.14265561
Cl       2.30957900      -3.71499000      -4.11046400      -0.03187654       0.02522818       0.02138027
6
Properties=species:S:1:pos:R:3:forces:R:3 charge=-1.0 dipole_moment="-0.17906033862453974 -1.746100112014189 0.45090290510886955" energy=-12.407444290154483 pbc="F F F"
C       -0.18486800      -3.96496800       1.01516800      -0.28779234       6.83043225       5.13099978
H       -0.71824800      -4.43095400       1.77940200      -0.87830073      -1.24321486       0.67750116
H        0.76213800      -3.45579900       1.58834100      -2.58939264      -0.61300503      -1.78924522
H        0.14896400      -4.46187700       0.25816900       1.37677134      -3.02253408      -4.73242528
Cl      -1.56471000      -2.60036400       0.43188700       2.33878308      -1.97365658       0.71054858
I        0.51917800       1.51593600      -0.32186800       0.03837629       0.02256606       0.00306990
6
Properties=species:S:1:pos:R:3:forces:R:3 charge=-1.0 dipole_moment="-0.10451779085846426 -0.12318187107505094 0.7870082228668615" energy=-14.47441389107098 pbc="F F F"
C       -0.14473600      -0.09840600       0.80027400       1.39362286      -1.83350677      -1.34568259
H       -0.64289500       0.87519600       0.75727900       0.28867217      -0.53614961      -0.61369563
H        0.96265600      -0.14169600       0.51633900      -1.89624735       0.57287782       0.66000583
H       -0.61569300      -0.98988300       0.23363400       0.35305877       1.91213008       1.30060600
F       -0.16274900      -0.40286600       2.13058700      -0.37025688      -0.87703832       3.53731937
Cl       0.15465200       0.26309500      -1.49906900       0.23148826       0.76184775      -3.53869645
6
Properties=species:S:1:pos:R:3:forces:R:3 charge=-1.0 dipole_moment="3.4164019387416342 0.9326801253908756 -2.2145007907675627" energy=-12.544683853452314 pbc="F F F"
C        0.58555700      -0.80703400      -1.90875000       1.73182991      -0.62350593      -0.67589885
H        0.84287200      -0.21864300      -2.80949400      -0.12593624      -0.73050908       0.46264691
H       -0.34316200      -1.33975600      -2.04026600      -0.78977970       0.74119253       0.71640761
H        1.31303200      -1.61494900      -1.69523100      -0.19106743       0.60204442      -0.64733955
I        1.05284500       0.53198200      -0.31996200      -0.63644064       0.02778437       0.17947741
Cl      -3.59569900      -1.18702900       2.05620500       0.01188107      -0.01658105      -0.03467750
6
Properties=species:S:1:pos:R:3:forces:R:3 charge=-1.0 dipole_moment="1.3360200536370566 1.7541578933994444 1.606438604247759" energy=-12.449583895341561 pbc="F F F"
C        2.74896200       1.52070700       1.26172900       1.35277986       0.56823390       2.91110092
H        3.02526200       2.59051800       1.49932500       0.15282278      -1.48516597      -0.19779704
H        3.24421700       1.21276200       0.37096500      -0.69731511      -0.15553118      -1.23397689
H        3.16871600       0.79157800       2.05270900      -0.84306993       1.46197462      -0.98878156
I        0.64174300       1.62353700       1.52094600       0.01842658      -0.39261622      -0.49257147
I       -1.13102500      -1.88238800      -1.73780300       0.01547393       0.00621693       0.00294340
6
Properties=species:S:1:pos:R:3:forces:R:3 charge=-1.0 dipole_moment="-0.9251393501403409 -1.708596793924319 1.418755852154292" energy=-13.147829753530742 pbc="F F F"
C       -0.91944600      -1.36751600      -0.39708900       1.15667975      -0.47011905      -3.94841720
H       -0.15761600      -2.05407900      -0.87422800      -0.77402192       0.67267263       0.81892213
H       -1.08830600      -0.60593600      -1.18829000       0.02584216      -0.33138694       0.61985445
H       -1.80446900      -1.91572500      -0.22611700      -0.94513554      -0.47818923       0.60615099
Br      -0.21023900      -0.51113500       1.05226600       0.64699810       0.73707774       1.94196208
Cl       0.93679000       1.80415000      -1.89165600      -0.11024634      -0.12948488      -0.03773608
6
Properties=species:S:1:pos:R:3:forces:R:3 charge=-1.0 dipole_moment="-0.3390544223524643 -2.637831975674424 0.5679500247818537" energy=-13.047515302793276 pbc="F F F"
C       -0.16540700      -4.08016700       0.51675200      -3.26671897       0.95802551       1.63475276
H       -0.46299600      -5.10821300       0.73220400       0.06617146       0.50786953       0.38386059
H        0.73375900      -3.72873800       0.84374500       2.68768849       0.07466947       0.34663615
H       -0.45681100      -3.76279000      -0.42621500       0.08625075       0.13158341      -1.91629578
Cl      -1.18275300      -2.71181200       1.47438800       0.40727511      -1.67285549      -0.42863430
Br       0.60815100       2.37661600      -0.83756700       0.01856542       0.00177355      -0.01978875
6
Properties=species:S:1:pos:R:3:forces:R:3 charge=-1.0 dipole_moment="-0.10469241933795033 -0.05280130207006006 -1.2555681839606145" energy=-13.335127799065276 pbc="F F F"
C       -0.16379200       0.21084400      -0.37188100      -0.22015844       1.49143998      -0.81116768
H        0.46297900      -0.54843300       0.07410800      -0.19172255       0.42040214      -0.01991422
H       -1.24240800       0.10101600      -0.24943900       0.56446054      -0.17906089       0.30952125
H        0.13371700       1.31819800      -0.22770500      -0.17401845      -2.30057854      -0.50595920
Br       0.09206500       0.26249800       2.51528100      -0.04770271       0.08882339       0.38824021
Br      -0.04553700      -0.32352200      -2.44001500       0.06914468       0.47934828       0.64011886
6
Properties=species:S:1:pos:R:3:forces:R:3 charge=-1.0 dipole_moment="2.3897325322736727 2.303603649482302 0.23012858533000324" energy=-12.847014484370815 pbc="F F F"
C       -0.17188200       0.45771500       0.07291200      -2.84492843      -1.06705571       1.67344478
H        0.05413100      -0.62689400       0.00708600      -1.24909857       0.71557354       0.75276044
H       -0.98433000       0.70129400      -0.60745000       0.97976264       0.29223572      -1.19233581
H       -0.63502700       0.93461800       0.98809400       0.51467061      -1.79669577      -0.39009397
Br       1.50956100       1.17595700       0.09465300       2.48596281       1.71962849      -0.84309564
Cl      -2.95518400      -2.64198800      -0.24341400       0.11483525       0.13640475      -0.00071271
6
Properties=species:S:1:pos:R:3:forces:R:3 charge=-1.0 dipole_moment="-0.6645825460257062 -4.7169914614226 -0.8275664809933165" energy=-12.586431528775178 pbc="F F F"
C        1.53956700      -1.39566800      -0.34441700       0.97940320      -2.10629466      -0.66749700
H        1.78990000      -0.38515000      -0.29315500       0.62843062       1.50098957       0.27162936
H        1.85687800      -1.78669100      -1.32964200      -0.74891407       0.37220269       0.25648350
H        2.17428800      -2.02536100       0.34315900      -1.50823288       0.76102757       0.00591559
I       -0.60909000      -1.31758700      -0.19552200       0.62613823      -0.50059999       0.14222984
Cl       1.01313700       4.84725500       0.80640200       0.02242825      -0.02764656      -0.00871090
6
Properties=species:S:1:pos:R:3:forces:R:3 charge=-1.0 dipole_moment="1.7537356099854147 1.041574211780703 -0.7635180464899325" energy=-15.446684520394243 pbc="F F F"
C        1.69334900       0.93397100      -0.99824000      -0.68678027      -0.65602833      -1.39964079
H        2.05742800      -0.10773800      -0.99869700      -0.19149321       0.47314524       0.01460232
H        2.06068200       1.45942400      -1.90892500      -0.15243403      -0.30488401       0.60425557
H        0.59091000       0.93210400      -0.99539500       0.46999975      -0.12510835       0.07068580
F        2.14665000       1.57259900       0.10949300       0.48455117       0.56086511       0.78857077
Cl      -2.01111500      -1.29653000       0.52394200       0.07646718       0.05259552      -0.07729148
6
Properties=species:S:1:pos:R:3:forces:R:3 charge=-1.0 dipole_moment="0.20969176145802773 0.0828622718705602 -0.42878118099845863" energy=-13.476248564457634 pbc="F F F"
C        0.66004800       0.21097700      -1.54519100      -2.28607289      -1.18523854      -0.04098956
H       -0.27363900       0.78211900      -1.26649300       1.33416507      -1.18098645      -0.15608294
H        0.68437200      -0.86286700      -1.10820800       0.03162611       2.43952046      -0.85724442
H        1.50498600       0.84404500      -1.32147000       0.43319235      -0.26667433      -0.36028306
Cl       0.35862700      -0.02938300      -3.40093600       0.65852847       0.20478633       0.33897889
I       -0.22589900      -0.02886100       1.33553300      -0.17154350      -0.01146866       1.07453094
6
Properties=species:S:1:pos:R:3:forces:R:3 charge=-1.0 dipole_moment="-2.464367686051597 0.7952316367190235 0.9601655897075615" energy=-13.061456848561042 pbc="F F F"
C       -1.63268900      -0.31098600      -0.75608900       3.19529731       1.54551182      -0.76363775
H       -0.78590500      -0.78200000      -1.30281500      -0.06005840       0.62347919       0.72858950
H       -2.03217300       0.45993400      -1.41382700      -0.24238306      -0.04018635       0.53335842
H       -2.26444600      -1.09064200      -0.52291600      -1.71561191      -1.12646414       1.10876878
Br      -0.82510800       0.61801400       0.91220100      -1.00602183      -0.98056997      -1.55426900
Cl       2.57396800      -1.07952100      -1.42064400      -0.17086370      -0.02075189      -0.05235332
6
Properties=species:S:1:pos:R:3:forces:R:3 charge=-1.0 dipole_moment="-0.5536675318687357 2.5101362229932636 0.7419170327547165" energy=-13.755256552045667 pbc="F F F"
C       -0.69892400       1.39631300      -0.17314700       0.15147861       0.47749863      -0.72681081
H       -0.73073000       0.28345300      -0.00310000      -0.01966071       1.29607623      -0.49934272
H       -0.00940900       1.71583200      -1.02806300      -1.11138411      -0.83424436       1.24495241
H       -1.68407300       1.91789200      -0.26921500       0.75406965      -1.06764913      -0.30869130
Cl      -0.05117400       2.17951200       1.30917700       0.29603273      -0.02258971       0.25773614
Cl       0.44045300      -2.90275100      -1.17157400      -0.07015770       0.15184525       0.03336161
6
Properties=species:S:1:pos:R:3:forces:R:3 charge=-1.0 dipole_moment="-1.783993962885455 -0.36548682402012816 -1.0870464094844536" energy=-13.438640428237186 pbc="F F F"
C       -1.59257700      -0.65753800      -0.95443500      -0.56915024      -0.55523440      -1.32197084
H       -2.30650400       0.00060800      -1.44206700       0.16233227       0.45922323       0.03560053
H       -2.16325600      -1.28915400      -0.29164200       0.05672008      -0.41955676       0.09665137
H       -1.04760300      -1.20298100      -1.72410800      -0.87943305      -0.51577465      -0.11854021
Br      -0.12222200       0.09339600      -0.07079700       1.52295811       0.92082010       1.51003420
F        2.15006700       0.35199000       1.29581400      -0.29342666       0.11043609      -0.20086334
6
Properties=species:S:1:pos:R:3:forces:R:3 charge=-1.0 dipole_moment="-0.044509095180524684 0.09034642515956459 -0.02328379726480901" energy=-14.104710528739025 pbc="F F F"
C       -0.50793000       0.30352200       1.23099900      -1.53761597       5.72986786       3.86491187
H       -1.28064000       1.01821500       0.81642300       0.75791705      -1.24400830       0.62022521
H        0.43973500       0.81268700       1.19933100       0.07453012      -0.22393745       0.52825324
H       -0.48199600      -0.58756200       0.78650600      -0.64217574      -3.77365364       0.28476718
F       -0.83666200       0.30470800       2.79965000       0.14729028      -0.29872776      -1.67715283
Br       0.34001300      -0.16591000      -1.01100300       1.20022756      -0.18940033      -3.62188039
6
Properties=species:S:1:pos:R:3:forces:R:3 charge=-1.0 dipole_moment="0.41395945650777605 -0.5512015660675083 0.9841690679787374" energy=-15.080069555177362 pbc="F F F"
C        0.41787300      -0.53258700       0.85420200      -3.60396802       1.35240911      -1.21596476
H        0.67809400       0.49595500       0.88559300       0.17397474       0.77038021      -1.22789880
H        0.69471400      -1.11348900       0.00359800       1.02237559      -0.29519198      -0.25399004
H       -0.66310700      -0.65463900       0.94796200      -0.25814238       0.74867444      -1.26787946
F        0.73777200      -0.94993100       2.05447100       2.83542358      -2.78243982       4.46983130
Cl      -0.57981700       0.76571000      -1.49721200      -0.16880682       0.20555251      -0.50185726
6
Properties=species:S:1:pos:R:3:forces:R:3 charge=-1.0 dipole_moment="0.40407971798654907 0.07827589298660338 -1.306374487946849" energy=-13.65061449778721 pbc="F F F"
C        0.05442100      -0.23500200       1.17221500      -2.89878842       0.35227407       0.49449979
H       -0.86829800      -0.97643900       1.05107400       2.75389081       2.06379072       0.51188765
H       -0.15661200       0.85304800       1.42749100       0.20352597      -2.14748631      -0.54829859
H        1.06109700      -0.58482400       1.43490600      -0.81181714      -0.04343313      -0.38895549
F       -0.72150400      -0.29767500       3.22790300       0.44817468      -0.07907068      -0.53232021
Br       0.17516600       0.13706600      -1.14279700       0.30510152      -0.14606952       0.46303772
6
Properties=species:S:1:pos:R:3:forces:R:3 charge=-1.0 dipole_moment="-0.5746547000396977 0.6787385655854995 -4.585669786494656" energy=-15.087969423624438 pbc="F F F"
C       -0.51486900       0.01388300      -2.12403600       0.98187712       1.24439500       2.73593422
H       -1.39580300       0.44463600      -1.55471000       1.53165203      -0.31872991      -0.04118599
H        0.29541300      -0.49741400      -1.51926500      -1.73102259       0.23341608      -0.27187104
H       -0.99339200      -0.62794600      -2.79093000      -0.08888356      -1.05375951      -1.80747435
F        0.21150500       1.05317300      -2.70729700      -0.68615292      -0.09888104      -0.59943783
F        0.36438400      -0.98679200       4.77497700      -0.00765983      -0.00647610      -0.01640724
5
Properties=species:S:1:pos:R:3:forces:R:3 charge=0.0 dipole_moment="-0.16253148845257817 -0.017267052380698138 -0.3341807002431713" energy=-13.515318236641084 pbc="F F F"
C       -0.49007600      -0.10946400      -0.96838600       0.65021404       0.41866407      -2.73300985
H       -1.56648000      -0.15783000      -0.93094700      -0.20999949      -0.53540862       0.52636553
H       -0.04568900      -0.93645000      -1.60777400      -0.65918668       0.79076495       1.23084940
H       -0.31211500       0.81656000      -1.55860600       0.15452228      -0.50887895       0.52710807
Cl       0.28616100       0.05497100       0.58280200       0.06512656      -0.16495942       0.44979911
6
Properties=species:S:1:pos:R:3:forces:R:3 charge=-1.0 dipole_moment="0.02913014708711833 -0.011892199453001202 -2.1692698978718283" energy=-13.216928324335848 pbc="F F F"
C       -0.00232600      -0.07639100       0.01232600       1.52770642      -0.42161004       1.42833430
H        0.99722000       0.25725700       0.41514100      -1.24132664      -0.19086174      -0.70698349
H       -0.09691300      -1.13792400       0.34099300      -0.40391468       1.12058352      -0.41541574
H       -0.77175100       0.60625700       0.36190300       0.06114547      -0.46627371       0.01667669
Br      -0.02945500      -0.00508400       3.17718500       0.00750042      -0.00639228       0.11408757
I        0.01728900       0.01718300      -2.12063100       0.04891216      -0.03540975      -0.43702329
6
Properties=species:S:1:pos:R:3:forces:R:3 charge=-1.0 dipole_moment="-0.18420129522516748 -0.1288229001396615 0.7130027899695083" energy=-14.341547639735042 pbc="F F F"
C       -0.51491900      -0.09177200       1.86430400       6.52733722       3.91938995      -1.72128685
H        0.58819500       0.01326100       1.27651800      -3.61861971      -0.62982365       1.44485261
H       -0.34940900      -0.73872200       2.61438200       0.38085703      -1.52874926       3.91493732
H       -1.21211200      -0.50390000       1.30495400      -3.07255387      -1.32411463      -3.25008496
F       -0.84187400       1.22370900       2.18960200      -0.49469160      -0.28629750       0.86229407
Br       0.33256300      -0.26381100      -1.03108900       0.27782520      -0.15078441      -1.25059650
6
Properties=species:S:1:pos:R:3:forces:R:3 charge=-1.0 dipole_moment="-0.2508924407181072 -0.058936582649337245 1.7296030124748611" energy=-13.155475619186124 pbc="F F F"
C       -0.18434000       0.04977700       0.51189700       0.37684250       0.19125461      -1.03110449
H        0.86420300      -0.17273700       0.22111400      -1.00472908       0.07511787       0.30352389
H       -0.40287000       1.10668000       0.29550100       0.05802672      -0.69215079       0.05089036
H       -0.89844300      -0.62482300      -0.00583600       0.63780590       0.54347777       0.64392924
I        0.36069100       0.12957400      -2.71659400       0.02679038       0.02245756      -0.26299148
I       -0.33157500      -0.14104200       2.64900600      -0.09481201      -0.14022746       0.29665339
6
Properties=species:S:1:pos:R:3:forces:R:3 charge=-1.0 dipole_moment="-0.12573673864765317 -0.07051656754810579 -0.7983881787800368" energy=-13.157782692032434 pbc="F F F"
C       -0.41084600      -0.26237100      -1.90101500      -2.84060127       0.07146176      -0.69605219
H       -0.85199400      -0.99111700      -2.54554700      -0.25807039      -0.27557291      -1.56167172
H       -0.05885400      -0.94647800      -1.15167700       0.53751127       1.09469610       0.71817653
H       -1.29956500       0.42216000      -1.66110800       1.83415468      -1.13447930       0.44774119
Cl       0.78577700       0.68690200      -2.74027700       0.69072126       0.16834916      -0.28314070
I       -0.16382500      -0.16203100       1.19526700       0.03709948       0.07680914       1.37443472
6
Properties=species:S:1:pos:R:3:forces:R:3 charge=-1.0 dipole_moment="-0.8527426159631019 -0.391114876327735 1.6492019438106336" energy=-13.268722125387717 pbc="F F F"
C        0.34751900      -0.06650900      -0.23789300       2.82307148       2.78898637       2.81806966
H        1.41631100       0.01203600       0.22143700      -2.10682328       0.17589946      -1.02513593
H        0.05601800       0.85356300      -0.73571200       0.03883189      -0.79961777      -0.03397456
H        0.29501700      -0.97970100      -0.66717400      -0.51344574      -2.18706279      -1.96260701
Cl       1.45624000       0.55646700      -2.58640800       0.49837702       0.12271414      -0.82583994
Br      -0.81738700      -0.25562200       1.33079300      -0.73983396      -0.10078160       1.02951401
5
Properties=species:S:1:pos:R:3:forces:R:3 charge=0.0 dipole_moment="0.27077997864551756 -0.3176227453246287 0.1779517123684085" energy=-13.49764490224374 pbc="F F F"
C        0.45812500      -0.55295000       0.22613000      -1.81482462       7.86848181       3.30398865
H       -0.09050200      -0.52058200       1.21811600       0.93507532      -2.24401838      -1.05588478
H        1.13225600       0.42925700       0.51148700       0.58076185      -3.94327859      -1.17670093
H        0.51050500      -1.35002400      -0.48046100       0.59368062      -0.34187139       0.03719667
F       -0.47789000       0.52878300      -0.28954700      -0.29499709      -1.33799704      -1.10936733
6
Properties=species:S:1:pos:R:3:forces:R:3 charge=-1.0 dipole_moment="1.757593311850425 -0.5924509296309596 0.9994940399966663" energy=-13.29093277892977 pbc="F F F"
C        1.16008700      -1.10826100      -0.07465100       2.10927663      -0.53148254       0.11275214
H        1.77684000      -2.01541400      -0.27374800      -0.37701940       0.67862319       0.70696703
H        1.18961100      -0.53340900      -0.98831100      -0.22288689       0.74783575       0.38184022
H        0.19766200      -1.34237800       0.24957300      -1.51907574      -0.27550452       0.04118959
Br       1.88248500      -0.13812500       1.56406200      -0.10729163      -0.52332495      -1.25946578
Br      -2.17176000       0.43929000      -1.52233600       0.11717186      -0.09579108       0.01713075
6
Properties=species:S:1:pos:R:3:forces:R:3 charge=-1.0 dipole_moment="-0.6600056923315396 -0.2427706288903734 1.072875043785554" energy=-13.2437165622922 pbc="F F F"
C        0.30081900       0.07654900      -0.47747000       0.58347283       1.07512692       1.09139532
H        1.34685900      -0.10123400      -0.10101100      -1.62307327       1.05747218      -0.30514677
H       -0.21035900       1.08112500      -0.62153000       1.51279710      -1.83869268      -0.09507837
H        0.01777400      -0.77363000      -1.04193900      -0.71134717      -0.14772583      -0.41622564
Cl       1.56311400       0.53486900      -2.53052600       0.33397347       0.14341152      -0.60298699
Br      -0.84377500      -0.27880900       1.36137800      -0.09555711      -0.28943219       0.32758325
6
Properties=species:S:1:pos:R:3:forces:R:3 charge=-1.0 dipole_moment="-0.33844057678821027 0.22539244929545685 1.0460457592099672" energy=-13.542203799215622 pbc="F F F"
C       -0.36266900      -0.00275000       0.24871700       2.64528843       0.41820076       2.11431136
H        0.22918600       0.78059200      -0.25059500      -0.53771284      -1.37915629       0.26182317
H       -1.37411400      -0.01269600       0.18633500      -2.90684677       0.65561696      -0.90984766
H       -0.09846800      -1.03519500       0.43970000       1.00601464       0.43928792      -0.86919646
Cl       0.38746200      -0.56862900      -2.22713700      -0.01599843      -0.25627164      -0.72262608
Cl      -0.18632000       0.58532300       2.11727000      -0.19049202       0.12256141       0.12691583
5
Properties=species:S:1:pos:R:3:forces:R:3 charge=-0.0 dipole_moment="-0.10952380727039819 -0.18070343386334048 -0.2996148448491412" energy=-15.114635681393203 pbc="F F F"
C       -0.18362000      -0.32413500      -0.49902700      -2.79419799      -0.18667907      -0.43160906
H        0.67383600      -0.63539900      -1.08150300       0.03254657      -0.56976987       0.15212601
H       -0.81639900       0.34214800      -1.17776600       0.84804039      -0.65331068       0.99738756
H       -0.91101200      -1.14381500      -0.10839500       1.68322938       1.02988939      -0.97311531
F        0.23947700       0.37576400       0.59575900       0.23022277       0.38065185       0.25479686
6
Properties=species:S:1:pos:R:3:forces:R:3 charge=-1.0 dipole_moment="-1.513605575375755 -0.20798781084001214 -0.8209919833292714" energy=-12.634432114753755 pbc="F F F"
C       -1.95611700      -0.81158400      -1.85784700      -2.99271340       2.32012150       1.40666607
H       -1.29096800      -1.59497800      -1.98045200       0.92636751      -1.58909871      -0.24303097
H       -2.07924200      -0.20010500      -2.77652900       0.52467478      -0.07206957       0.86275790
H       -3.00507400      -1.05892900      -1.49786200       1.52041631      -0.32740173      -0.75478441
Br      -1.24319000       0.16186300      -0.21460000      -0.67025939      -0.36741016      -1.60726561
Br       1.76067500       0.05880900       0.71179800       0.69211737       0.03595945       0.33622524
6
Properties=species:S:1:pos:R:3:forces:R:3 charge=-1.0 dipole_moment="-0.7175642975245686 1.6393645394662517 0.5517942445433397" energy=-14.044578827155174 pbc="F F F"
C       -0.38346100       1.37670800       0.16176900       3.48708618       1.92807092      -1.56375997
H        0.00350500       1.90249700       1.09774900      -0.55358735      -0.09326420      -1.41613339
H       -1.13975400       2.20452600      -0.44433900       0.85110617      -3.22454104       1.92786369
H        0.52102200       1.25520400      -0.62099900      -1.98944264       0.38240792       1.81208793
F       -0.56416400       0.09008600       0.60048000      -2.04828749       1.02921267      -0.50678144
F        0.88816300      -1.60369400      -0.71192700       0.25312718      -0.02077709      -0.25256308
6
Properties=species:S:1:pos:R:3:forces:R:3 charge=-1.0 dipole_moment="0.03609517753255961 -0.016690249221183548 0.23763231817579852" energy=-14.246877688090276 pbc="F F F"
C        0.16184100      -0.13119300       0.63531800      -0.51763715      -1.32484739       2.88009136
H       -0.39447000       0.67705000       1.14261100       0.15942126      -0.53883899      -1.01084728
H        1.01899200       0.20510600       0.06681700       0.13203490      -0.86677859       0.93432970
H       -0.37763800      -1.12213100       0.56463500       0.78567159       1.80242470      -0.97552546
F        0.77124100      -0.68563000       2.02221000       0.83187638       0.13718122       0.69736293
Cl      -0.47994700       0.42340000      -1.39916800      -1.39167243       0.79009595      -2.52614041
6
Properties=species:S:1:pos:R:3:forces:R:3 charge=-1.0 dipole_moment="3.7050554068511565 -2.83876585429762 -1.8456907338650932" energy=-12.749682384886242 pbc="F F F"
C       -0.26555300      -1.20499700      -1.31979100       0.73220087       0.49196057       0.43701969
H       -0.47104700      -0.26094800      -1.83243200       0.44374056      -0.89297711      -1.02766178
H       -1.23463500      -1.41053600      -0.87146400       0.47836252      -0.33788875       0.86741880
H        0.19263500      -2.13264800      -1.78534500      -0.59484327       1.77322776       0.22811857
Br       1.14308900      -0.38744900      -0.05693400      -1.04771125      -1.01354180      -0.47692013
F       -4.10019300       2.73275800       1.60007300      -0.00948017      -0.02026595      -0.02843846
6
Properties=species:S:1:pos:R:3:forces:R:3 charge=-1.0 dipole_moment="0.23102289481585614 0.24907312946818874 -2.1816018435868085" energy=-14.021079526425122 pbc="F F F"
C       -0.35848400       0.01440600       0.84962000       0.41114102       1.15606783      -0.93529592
H       -0.82979900      -0.89570100       0.97059900      -0.84821728      -1.62403486       0.21158124
H       -1.02893000       0.84504400       0.86606800      -0.13237583       0.30441658       0.46900782
H        0.50680400       0.08066900       1.45329100       0.47721375       0.24731237       0.49531792
F       -0.47636300      -0.34228700       3.36610400       0.01252436       0.04550904      -0.26290612
Br       0.22257400       0.08469000      -1.10521700       0.08011455      -0.12947974       0.02183330
6
Properties=species:S:1:pos:R:3:forces:R:3 charge=-1.0 dipole_moment="0.24749247714023456 -0.0019934105521939895 -0.7271556344660383" energy=-12.735819426818566 pbc="F F F"
C        0.30069900      -0.23953800      -0.13472800      -1.68060017      -2.50763670      -1.91735353
H        0.65504000      -1.30044800      -0.21148500      -0.52342625       1.29701108       0.25258519
H        0.95047800       0.41714100       0.33011100       0.77852393       1.36779047       0.52214173
H       -0.79421900      -0.10325900      -0.18518800       1.30316271       0.13688760       0.18305845
I        0.61408400       0.32751300      -2.59707400       0.07642399      -0.15383066       0.76011997
I       -0.66343300      -0.28178100       2.61358200       0.04563966      -0.14037659       0.19954796
6
Properties=species:S:1:pos:R:3:forces:R:3 charge=-1.0 dipole_moment="-0.07762659254924155 0.06152690509504725 1.2601582670850453" energy=-12.562523471842857 pbc="F F F"
C        0.16828700      -0.07273700      -1.03547500      -1.04891041      -0.33464607      -0.70726271
H        1.01932200      -0.75221400      -1.18608300      -0.69709143       0.69538987       0.76383624
H        0.25571800       0.96110200      -1.37436500       0.26798507      -0.51137960       1.07926023
H       -0.83512300      -0.47725600      -1.28804200       1.24842597       0.26651080       0.80526134
Cl       0.23467400      -0.17666900      -3.24665700       0.19243783      -0.23749230      -3.27622999
I       -0.10262500       0.06996500       1.23121700       0.03725169       0.12163736       1.33486904
6
Properties=species:S:1:pos:R:3:forces:R:3 charge=-1.0 dipole_moment="1.87372125070866 4.967222959804712 1.1037467130726382" energy=-12.131302814841133 pbc="F F F"
C        0.51629500       0.08626100      -0.67502000      -2.16864803      -3.38392066      -1.35315833
H       -0.34174400      -0.71721100      -0.48934700       1.84255808       1.98870371       0.30764949
H        1.42351800      -0.19667600      -0.22507100       0.99300948      -1.80254245      -0.43462702
H        0.56301800       0.04153900      -1.79826000       0.22765886       1.29913944       1.18170533
I        0.51877800       1.73804000       0.54724900      -0.91962556       1.83625939       0.29645130
Cl      -1.89633900      -5.39772600      -1.32008300       0.02484766       0.06222327       0.00178332
6
Properties=species:S:1:pos:R:3:forces:R:3 charge=-1.0 dipole_moment="-0.020542659314088312 -0.011118013193946303 0.6526607126489135" energy=-14.421278619756855 pbc="F F F"
C       -0.01257500      -0.06784400       1.60557800       2.22688301      -0.71262912      -7.28271453
H        0.83960500      -0.74738500       1.35474200      -0.79963628      -0.01468460       0.47314164
H       -0.85290600      -0.29669300       0.96284900      -0.15124207      -0.50538070       0.38534669
H        0.33433600       0.85409200       1.17172600       0.09888001       0.88551576       0.52030236
F       -0.31636800      -0.03206800       2.80753200      -1.65466493       0.29028425       8.35568327
Br       0.07433500       0.02530400      -1.09687400       0.28042356       0.05668203      -2.45295756
6
Properties=species:S:1:pos:R:3:forces:R:3 charge=-1.0 dipole_moment="-0.01919378660436108 0.5091367404225778 0.8077641405968069" energy=-15.187496202722414 pbc="F F F"
C        0.06403400       1.89315700       3.05625400       1.64008420      -4.28213818      -2.19490517
H        0.92566500       1.54878100       2.37693800      -0.90334636       0.60930264       1.03924409
H       -0.56659200       2.40233900       2.35224800      -0.77432428       0.71093785       0.50953612
H       -0.33162300       0.90286700       3.43306000      -0.23581029       1.30134545      -0.59029653
F        0.54601400       2.55393400       4.11130800       0.27421074       1.61489716       1.17012765
I       -0.10048700      -0.73959100      -1.19814200      -0.00026328       0.04678945       0.06791775
5
Properties=species:S:1:pos:R:3:forces:R:3 charge=-0.0 dipole_moment="0.21254931839507243 -0.27594474822062065 0.11823406415627902" energy=-11.026239782233297 pbc="F F F"
C        0.55460700      -1.01704400       0.70174300      -0.04633025      -4.74785808       0.58555953
H        1.29712500      -1.56701300       0.29286500       4.24009807       0.31925699      -3.12930789
H        0.29883700      -2.09980700       0.74860700      -3.05118029       0.91041690       1.47256962
H        1.01822700      -0.58664400       1.46899500       1.25231811       0.76662846       3.95694452
Br      -0.16976700       0.29587800      -0.19202600      -2.39439399       2.75065430      -2.88540171
6
Properties=species:S:1:pos:R:3:forces:R:3 charge=-1.0 dipole_moment="0.1302807833547649 -1.0799093964455793 -0.9052279992384552" energy=-12.319314566789942 pbc="F F F"
C        1.84007000      -0.79099800      -0.56901200      -0.58874102      -2.50324937      -1.25292540
H        2.19999900       0.19522200      -0.86694400      -0.39888766      -0.21581276       0.37802058
H        2.18340400      -1.63550800      -1.34598200      -0.69098351       1.95674232       1.84432546
H        2.04161400      -1.10121000       0.48502200      -0.21393997       0.61873448      -1.08216403
I       -0.44329000      -0.86146800      -0.76035300       1.57940257      -0.62912379      -0.56792691
Br       0.17225500       1.51272300       1.29830500       0.31343138       0.77180563       0.68214354
6
Properties=species:S:1:pos:R:3:forces:R:3 charge=-1.0 dipole_moment="0.5588227762540486 3.096272480970565 -0.06235400907515853" energy=-12.107519084527326 pbc="F F F"
C        1.98567100       2.46436900      -0.43699900      -1.95359992       0.92888668      -4.06256956
H        2.71421300       3.08727000      -0.03044900       0.50895197       1.75666112       0.81121705
H        1.72607900       2.71004300      -1.54651300       1.35567081      -0.03121525       1.90990248
H        2.48652300       1.54641800      -0.52993000      -0.62144597      -2.11007161       0.71531232
I       -0.06189500       2.85183900       0.15280900       0.68503912      -0.54990707       0.63644938
I       -0.29359300      -3.26938600      -0.06358500       0.02473607       0.00559369      -0.01025665
6
Properties=species:S:1:pos:R:3:forces:R:3 charge=-1.0 dipole_moment="-0.07215331266037973 -0.21697853164749178 -0.6260801413622917" energy=-13.461508560491836 pbc="F F F"
C       -0.25580500      -0.08139200      -0.16888900      -0.96688656      -1.31034997      -1.97140584
H        0.36254600       0.78632600      -0.09146400      -0.11018772      -0.11570994      -0.03019607
H       -1.32742600       0.00657400      -0.57177800       1.85957673       0.07557296       1.59455151
H        0.07100800      -1.04514800       0.25488700      -0.48596476       1.22007853      -0.06242125
Cl       0.37267000      -0.65557600      -2.12448000       0.01977384       0.04705942      -0.03150270
Cl      -0.22980500       0.69914100       2.20810900      -0.31636913       0.08324976       0.50107513
6
Properties=species:S:1:pos:R:3:forces:R:3 charge=-1.0 dipole_moment="0.09286001690974284 -0.18206341929448955 -1.3915667270755219" energy=-13.259639375073462 pbc="F F F"
C        0.18304100      -0.28136700      -0.41296200       0.55783893       1.01030169       0.81407766
H       -0.15687300       0.66401500       0.13295100       1.01432650      -1.37822350      -1.24630070
H        1.26944500      -0.57113800      -0.26994900      -1.81463127       0.39582290       0.37830289
H       -0.56726800      -1.02156000      -0.18919300       0.41730190      -0.38001473       0.34745119
Br      -0.09420900       0.19075200       2.41992500      -0.05309328       0.03650710       1.00516926
Br       0.04725000      -0.11598400      -2.33981200      -0.12168004       0.31548724      -1.29774128
6
Properties=species:S:1:pos:R:3:forces:R:3 charge=-1.0 dipole_moment="0.24794069023758214 0.24919484022661845 -2.212955593312716" energy=-14.056538828291895 pbc="F F F"
C       -0.34832100       0.00852300       0.84144800      -0.87471816       0.88943155      -0.50543521
H       -0.83194800      -0.93541000       0.98113200      -0.26433051      -0.13591675      -0.00959587
H       -1.01579200       0.88842300       0.90503700       0.53337745      -0.87159684       0.25622433
H        0.50984000       0.06574700       1.46002000       0.51573659       0.18956591       0.40993826
F       -0.48400700      -0.34300100       3.37810700       0.03129238       0.03877275      -0.25664857
Br       0.22239700       0.08620300      -1.10851000       0.05898214      -0.11042066       0.10494370
5
Properties=species:S:1:pos:R:3:forces:R:3 charge=0.0 dipole_moment="-0.1687599042209146 0.1922659559141604 0.1693843333293799" energy=-11.007237832797129 pbc="F F F"
C       -0.64070700       0.99496400       1.24854800      -8.56051073      -2.97001107      -6.25674865
H       -0.26196900       1.68228100       1.72322500       5.68124367       5.61266514       5.99996947
H       -1.52048200       0.48155600       1.61040700       0.65519735      -0.42783314       1.25600250
H       -1.34642800       1.85278500       0.76403300       1.27190220      -1.85468597      -0.35518919
I        0.13156800      -0.18842300      -0.21866000       0.95191605      -0.36001103      -0.64392821
6
Properties=species:S:1:pos:R:3:forces:R:3 charge=-1.0 dipole_moment="-1.7123327850308998 1.3539263520881157 -1.5678568230027596" energy=-12.870780400173182 pbc="F F F"
C       -2.61873300       1.84046300      -2.79977200      -1.43833487       2.43316674      -0.05679207
H       -2.05743400       1.31200200      -3.58535200      -0.21387878      -0.66337038       1.07636208
H       -2.27239400       2.89302900      -2.92121000      -0.89162111      -0.63912641      -0.54804148
H       -3.82163400       1.79643600      -2.98325100       3.19998392      -0.17736911       0.89889476
Cl      -2.04934800       1.74972300      -1.03365600      -0.67064146      -0.94547595      -1.37264935
Br       1.67722200      -1.33684400       1.25316000       0.01502656      -0.00806555       0.00319537
6
Properties=species:S:1:pos:R:3:forces:R:3 charge=-1.0 dipole_moment="-2.0621030458972816 -2.6072137822712 1.4792725579543728" energy=-12.682068295150767 pbc="F F F"
C       -0.73464800      -2.36618000       1.19790100      -7.25417168      -3.38584127      -3.88953790
H       -1.41203700      -2.83347100       1.97626300       1.29170896      -0.43944373      -1.30667021
H       -0.04375000      -1.91251600       1.67562700       5.14145749       3.28591482       2.57450544
H       -0.45877600      -2.99162600       0.22290600      -0.67296471       1.53504126       2.58258590
Cl      -2.05779200      -1.03802800       0.72693100       1.46628533      -0.97619909       0.03139420
Cl       2.42970100       2.32830400      -1.37764900       0.02667160      -0.01894235       0.00738884
6
Properties=species:S:1:pos:R:3:forces:R:3 charge=-1.0 dipole_moment="-0.29373568603977696 0.2526768262721285 0.46274959532176213" energy=-12.986738064848394 pbc="F F F"
C       -0.39167600      -0.03491300       0.07331700       0.59883620       0.09719593       0.68453056
H        0.65231100       0.07763100      -0.12512100      -0.12330292       0.58133110       0.80081796
H       -0.95507800       0.48691600      -0.75181300       0.06834918      -0.89702248       1.80363620
H       -0.55329900      -1.07941000       0.48357000      -0.55607772       1.90630653      -0.74069837
Cl       0.59559200      -1.08740200      -1.75500000       0.64342324      -1.63582594      -2.46867574
Cl      -0.40699600       1.13001100       1.75226300      -0.63144139      -0.05153057      -0.07875290
6
Properties=species:S:1:pos:R:3:forces:R:3 charge=-1.0 dipole_moment="-3.3735338220910682 -0.13559583925766808 -1.5407761792521553" energy=-11.940279222599711 pbc="F F F"
C       -1.39630600      -1.22512000      -1.81132000      -6.03316036      -2.29425106      -1.55464644
H       -1.97312500      -2.18692600      -1.45800000       1.80723729       1.62407806      -0.28678910
H       -0.45058700      -1.44559400      -2.20187800       1.57417705       0.47606910       0.14535681
H       -2.17360800      -0.93576800      -2.62446200       2.12134693      -0.86824103       0.38104883
I       -2.09840800       0.28428300      -0.59260400       0.53517876       1.08214192       1.34129731
Br       3.54830800      -0.08994200       1.38743600      -0.00489281      -0.01989777      -0.02633273
6
Properties=species:S:1:pos:R:3:forces:R:3 charge=-1.0 dipole_moment="-2.3897325322736727 0.6380712969536684 -0.8102285188664028" energy=-13.033981220083446 pbc="F F F"
C       -2.98714600       0.45974200      -1.03475100       5.87016783      -0.35504932       2.72512684
H       -3.19531800      -0.34301200      -0.34684700      -0.59420718       0.05177739       0.22305144
H       -1.84789900       0.83339500      -0.74908400      -3.00963229      -0.62431377      -0.23985360
H       -2.78812800       0.10975900      -1.96136600       0.31673062      -1.72203041      -2.89240951
Cl      -4.05514200       1.69925300      -1.20398200      -2.53845600       2.64232086       0.20266311
Br       2.70547500      -0.92131100       0.84952900      -0.04512595       0.00777759      -0.01855822
6
Properties=species:S:1:pos:R:3:forces:R:3 charge=-1.0 dipole_moment="0.12058890274328812 -0.35712053232111385 0.6576720208329531" energy=-15.157740651803884 pbc="F F F"
C        0.11883300      -0.42716600       0.79863100       2.66432642      -0.08318085       3.29824172
H        0.92790000      -0.34660900       0.12241300       0.14921295      -0.67392836      -0.75843024
H       -0.85157400      -0.51773400       0.43972200      -1.22695058      -1.14285493      -0.52039698
H        0.18945600       0.46457100       1.41620700      -0.24332357      -0.01461569       0.08690689
F        0.56230500      -1.53353900       1.79195900      -1.03088543       1.03429780      -1.15483935
Cl      -0.35526600       0.98615400      -1.34692700      -0.31243534       0.87935540      -0.95071843
6
Properties=species:S:1:pos:R:3:forces:R:3 charge=-1.0 dipole_moment="0.4896000469857715 2.8120238839617766 -0.6124935164810652" energy=-12.065307339915613 pbc="F F F"
C        1.91904800       0.42615200      -0.06639000      -1.41925265       2.31973789      -5.08740724
H        2.27473600       1.50208800      -0.26583500      -0.85991117      -1.52643681       0.34295485
H        1.86108500      -0.08237000      -1.09442200       1.04497714       0.66424712       1.66114411
H        2.65472300      -0.00715100       0.51647100       0.25318683      -1.51801953       2.06528762
I       -0.29818300       0.46922900      -0.08287900       0.89780924      -0.09608316       1.06518652
F       -0.27790300      -3.20428900       0.62608200       0.08322816       0.15622333      -0.04743480
5
Properties=species:S:1:pos:R:3:forces:R:3 charge=0.0 dipole_moment="0.2836284013180076 -0.11644015341246762 0.04469430720422202" energy=-14.824423112704853 pbc="F F F"
C        0.56097200      -0.18833600       0.08096200       3.35035027       3.62230513      -1.24801974
H        1.10925200       0.74276600       0.52683800      -0.28763962      -1.88185071      -0.98235946
H        0.85097300      -0.44001500      -0.92944900       1.25275828      -0.06945939      -0.06704615
H        0.70110200      -0.98685200       0.69569000      -0.05189721      -2.34052835       1.95032588
F       -0.66968400       0.20156900      -0.08653900      -4.26530414       0.67035555       0.34687835
6
Properties=species:S:1:pos:R:3:forces:R:3 charge=-1.0 dipole_moment="-0.05513497356864661 -0.12894461089809117 0.5506882641732613" energy=-14.99549281444455 pbc="F F F"
C       -0.09545100      -0.19581900       0.84237900       3.05345828       2.76882943       4.06108552
H       -0.89601900      -0.67332200       0.50816400      -3.14149543      -1.78942571      -1.50867923
H       -0.08049700       0.91136100       0.76748300      -0.03534959      -1.34924048       0.02159315
H        0.86196800      -0.69058500       0.73157200      -0.32783008       0.21722121      -0.02984177
F       -0.35974100      -0.37726800       2.51065000       0.40653618       0.16696591      -2.20363561
Cl       0.23087800       0.29546300      -1.74454900       0.04482256      -0.01470003      -0.33955276
6
Properties=species:S:1:pos:R:3:forces:R:3 charge=-1.0 dipole_moment="1.966507182808924 1.6443308675873933 -1.1695959376235707" energy=-13.146236317279778 pbc="F F F"
C        2.08556300       1.56332900      -2.25159700      -1.10123185       1.79651733      -1.29784104
H        2.54592300       0.64260800      -2.30907700       0.78525045      -1.95724883      -0.05253535
H        2.34107700       2.15523100      -3.14094900      -0.07253802      -0.23096736       0.33049528
H        1.00379900       1.47818200      -2.20010600       0.11972908      -0.08704779       0.26494294
Br       2.77046600       2.47415200      -0.74625500       0.25906643       0.47146219       0.78596521
I       -2.17680200      -1.89153400       0.89205000       0.00967506       0.00719395      -0.03140140
6
Properties=species:S:1:pos:R:3:forces:R:3 charge=-1.0 dipole_moment="0.60669796767097 0.01895777356844962 1.6139185241190788" energy=-14.144048535458705 pbc="F F F"
C        1.52267500      -0.24369100       4.71702100       0.23766868      -0.60648831       4.56124122
H        2.64040300      -0.26975100       4.72955600      -0.79693714      -0.91607024      -0.93037946
H        1.25334900      -0.77947000       5.87860100       0.67970922       2.48878228      -3.07134596
H        1.37702500       0.91295600       4.63450600      -1.03839048      -2.41161319      -0.16910558
F        0.83935700      -1.13489900       3.90915200       0.91336184       1.42444577      -0.37344711
I       -0.41435900       0.22287700      -1.48541800       0.00440173       0.02069995      -0.01696003
5
Properties=species:S:1:pos:R:3:forces:R:3 charge=0.0 dipole_moment="0.2220639246410103 -0.1965628748639388 -0.3539084266529913" energy=-12.892870555038694 pbc="F F F"
C        0.52176900      -0.59867100      -0.92257200       4.38575571       1.01370429       3.73053727
H        0.59336800      -1.68599100      -1.00475400      -1.01252004       0.28501401       0.73897778
H        1.65594600      -0.23673700      -0.81386900      -2.46455889      -0.88484316       0.03242727
H        0.23309000      -0.11208700      -1.75197400      -1.67641441       1.30939352      -2.83977131
Cl      -0.33017700       0.33099100       0.53564900       0.76744864      -1.72281408      -1.66119142
6
Properties=species:S:1:pos:R:3:forces:R:3 charge=-1.0 dipole_moment="0.4964116160401493 -0.5249559639551734 -0.14912055040525876" energy=-15.09017904816983 pbc="F F F"
C        2.23346900      -1.78741900      -0.08011300      -1.33150809      -1.22600235       0.85162451
H        2.90973800      -1.79445700      -0.97196100      -0.51911142      -0.39134507       0.95497412
H        1.32540100      -1.22659400      -0.25751800      -0.31473082      -0.19946620      -0.77984239
H        1.85499400      -2.86063800       0.34326700       1.50883092       2.38720159      -1.11434602
F        2.80039900      -1.02933200       0.94178800       0.78921612      -0.62123051       0.12763214
I       -0.84329300       0.48811700      -0.13413600      -0.13221848       0.05069187      -0.03988296
6
Properties=species:S:1:pos:R:3:forces:R:3 charge=-1.0 dipole_moment="2.3686871546095487 2.272720867473796 1.560316047752225" energy=-13.358689976753224 pbc="F F F"
C       -0.25346600       0.39394800       0.20642300       0.58261099      -0.48597710      -0.13816544
H       -1.10976600       1.01696400       0.48141200       0.62982056       0.20225225      -0.21934546
H       -0.31651000      -0.53425100       0.77315900       0.03145642       0.09647037      -0.33323196
H       -0.16408800       0.19187800      -0.88334800      -0.13163021       0.28497287       1.01986003
Br       1.52135300       1.18712100       0.83030200      -1.21222432      -0.21992755      -0.40525628
Cl      -2.94918700      -2.62279500      -1.80413600       0.10059133       0.12269357       0.07612471
6
Properties=species:S:1:pos:R:3:forces:R:3 charge=-1.0 dipole_moment="0.2705048064960243 -0.9627585580393244 -0.17703094402202743" energy=-13.735866545174435 pbc="F F F"
C        0.24161400      -1.69712300      -0.70567200       0.68153111      -0.22452211       1.02869640
H        0.04483400      -0.65299300      -0.73371500      -0.16014529       0.83498638      -0.17533536
H       -0.65564800      -2.23610700      -0.51981500      -0.60580697      -0.59948823      -0.55588180
H        0.92352100      -2.02897600      -1.44051900      -0.16455010      -0.51005960      -1.38712003
Cl       1.22875600      -1.98994700       0.74343600       0.46438240      -0.09019431       1.04031675
Br      -0.64717800       1.39799800      -0.16315300      -0.21458531       0.58858418       0.05058543
6
Properties=species:S:1:pos:R:3:forces:R:3 charge=-1.0 dipole_moment="3.707632499866602 0.43931233666588965 1.2239075114525801" energy=-13.058799071003117 pbc="F F F"
C        2.94497000      -0.37201200       0.37577000      -1.04774519       0.99805193       3.38737108
H        2.63012800      -1.41471500       0.60563900       0.29727714       1.17032974       0.22665870
H        3.89249200       0.01006400       0.72165600       0.43391174      -0.85911670      -0.37282696
H        2.66610800      -0.06126700      -0.55220000      -0.23416889       0.35313847      -2.75398491
Cl       1.92050900       1.01418200       1.32603600       0.54425527      -1.64047861      -0.46790996
Cl      -3.50042400      -0.79665300      -1.50425500       0.00557055      -0.02102597      -0.01859833
5
Properties=species:S:1:pos:R:3:forces:R:3 charge=0.0 dipole_moment="-0.23146211190062413 0.09547944410203386 0.15038687147013802" energy=-12.752381251826272 pbc="F F F"
C       -0.83685500       0.29118500       0.43747600      -7.65315087       0.40734813       3.38888494
H       -1.93467200       0.05849000       0.00298100       2.81932487      -0.18934428      -0.00664990
H       -1.03797100       1.31314100       0.68364900       1.05280563       1.27460855      -0.65090875
H       -0.99395700      -0.08343800       1.47771300       0.67919449      -0.52241426      -0.72334548
Cl       0.52869000      -0.17854700      -0.28171700       3.10273759      -0.97080440      -2.00839887
6
Properties=species:S:1:pos:R:3:forces:R:3 charge=-1.0 dipole_moment="-2.1206845506383303 2.4268225629620925 2.451882808122764" energy=-12.154645687513334 pbc="F F F"
C        0.30463300       1.02562200       0.98922900      -0.78064149       3.01105308      -2.31244881
H        1.01375300       1.75232600       1.39803700      -0.50765613      -0.27404876       0.46846377
H       -0.05682900       1.50491200       0.03331600       1.59977342      -0.95588635       0.46427493
H        0.81012900       0.10274700       0.76964500      -0.87537122      -0.97131811       0.51357790
I       -1.75318700       1.50602700       1.64327400       0.58186537      -0.86173306       0.80561358
Br       2.55211600      -2.55237600      -2.72085400      -0.01808308       0.05191932       0.06068472
6
Properties=species:S:1:pos:R:3:forces:R:3 charge=-1.0 dipole_moment="0.092330839699179 -0.17765537313049276 -0.9809728376269318" energy=-12.716271604524088 pbc="F F F"
C        0.19865000      -0.38802400      -0.22415800       1.91667528       5.70335773      -0.51032648
H       -0.31263600       0.68821400      -0.05478500       1.30169512      -3.58898980       0.06537442
H        1.32380400      -0.36272300       0.05219300      -2.22127440       0.00248163      -0.86455510
H       -0.25338800      -1.28002100       0.01665400      -1.32651141      -1.46326891       0.32910740
Br      -0.07611200       0.20671900       2.36317900      -0.00892481      -0.00014810       1.21415059
Br       0.02040700      -0.11292800      -2.32515300       0.33855466      -0.65345569      -0.23358628
6
Properties=species:S:1:pos:R:3:forces:R:3 charge=-1.0 dipole_moment="1.2370988409575154 0.057124679880366645 -0.3106878779801896" energy=-14.408676290150913 pbc="F F F"
C        4.00732400       0.48644800      -1.16481000       1.17336775       1.75840072       8.39221350
H        3.36352600       0.92067400      -0.29679800       0.41033215      -0.83150614      -2.04423080
H        4.65006400      -0.24092600      -0.55813100       0.46180667       1.40376278      -1.10001520
H        3.61217600      -0.04592000      -1.83544800      -4.37522035      -4.53277551      -4.53529313
F        4.53299200       1.47624400      -1.86258600       2.29161568       2.20761465      -0.71224654
I       -1.44276700      -0.31771200       0.49891500       0.03901289      -0.00352498      -0.00177458
6
Properties=species:S:1:pos:R:3:forces:R:3 charge=-1.0 dipole_moment="0.6774976450267274 -0.5046599012212077 2.5931805318242573" energy=-12.337527793277983 pbc="F F F"
C        0.48060700      -1.47810500       1.31393400      -3.37566536      -1.93194763       3.05969270
H       -0.38696500      -1.24693700       0.74104000       0.40181512       0.88150279      -1.46538287
H       -0.00880200      -2.34524200       1.86914800       0.45461632       1.04009667       0.19342411
H        1.28165800      -2.03649500       0.98411600       2.20107839       0.23711024      -1.53462937
I        0.74268700       0.01876100       2.80352200       0.31842909      -0.16941926      -0.32259068
I       -0.81381000       0.25477300      -3.02008600      -0.00039029      -0.05695560       0.06991756
5
Properties=species:S:1:pos:R:3:forces:R:3 charge=-0.0 dipole_moment="0.4970138197057709 0.058272994427290184 -0.019960564382468085" energy=-11.845420770489426 pbc="F F F"
C        1.68335900       0.31075000       0.07273400      -3.55678468       0.12932598      -0.20447985
H        1.54865500      -0.44245500      -0.56592900       1.68902104      -3.30840221      -2.47037267
H        2.14282500       0.06858300       0.96622400       0.57063685       0.23624069       1.73555801
H        1.71904600       1.15732400      -0.52011900       0.64798284       2.12329223      -0.06429301
Br      -0.44316200      -0.07565600      -0.00904500       0.64952756       0.81970940       1.00367339
6
Properties=species:S:1:pos:R:3:forces:R:3 charge=-1.0 dipole_moment="-0.22812300370196625 0.3160457972371485 1.2515781877929633" energy=-13.154662831631796 pbc="F F F"
C       -0.28359200       0.03350700       0.40131700       0.28920799       0.04524165      -4.56906252
H        0.31918800       0.64770600      -0.29726100      -0.21620562       0.74724182       1.20547363
H       -1.24539500       0.10238400      -0.20596100       0.71258747      -0.37688621       1.80024080
H        0.27540600      -0.84527600       0.01296000      -0.88385586      -0.30269291       1.55021026
Cl       0.34211400      -0.51253600      -2.14581100       0.32778482      -0.41990746      -1.85182588
Cl      -0.20374000       0.50630900       2.03300900      -0.22963553       0.30730599       1.86599831
6
Properties=species:S:1:pos:R:3:forces:R:3 charge=-1.0 dipole_moment="0.1496629570460867 1.6625430304661584 -4.652040779775205" energy=-12.295661931398651 pbc="F F F"
C       -0.22102400      -1.02058600      -1.81092600       2.54746000       1.15219934      -4.01032011
H       -0.92580300      -0.76375000      -2.63143600      -0.51554787      -0.55651172       1.47019135
H       -0.29048500      -1.84373900      -1.16659300      -0.69182118      -1.48891207      -0.03218559
H        0.72369200      -1.08134500      -2.52920700      -1.41166944      -0.18225163       2.09492730
I        0.06560000       0.51471100      -0.45353500       0.07203203       1.08380183       0.49210147
F       -0.18423000      -1.94081200       4.58112700      -0.00367925      -0.00797813      -0.01396315
6
Properties=species:S:1:pos:R:3:forces:R:3 charge=-1.0 dipole_moment="2.092484167910173 0.03581153854769739 -1.8329338588500308" energy=-12.309739387872504 pbc="F F F"
C        1.11350000      -1.10494300      -2.29772800      -1.56744025      -1.84461239       0.80142886
H        0.24377500      -0.82452700      -2.91684600       1.45510772       0.52278296      -0.77349073
H        0.56293500      -1.93816800      -1.83781000       0.28611135       0.24520253       0.94123929
H        2.00268800      -1.67700100      -2.63211900      -0.36278731       1.44870464      -0.55357038
I        1.38376300       0.39977300      -0.80664600       0.16525047      -0.35911166      -0.37643164
Br      -2.36656700      -0.28910300       1.82643900       0.02257892      -0.01360371      -0.03835058
6
Properties=species:S:1:pos:R:3:forces:R:3 charge=-1.0 dipole_moment="-1.7673904987268039 -0.47463544464823654 -0.2720177241410264" energy=-12.816493065930327 pbc="F F F"
C       -3.75094400      -1.21003700      -0.90967400       1.32871382       5.74436014      -4.15991256
H       -3.58843300      -2.21174400      -1.20993700      -0.07719326      -0.92124536       0.29949395
H       -2.81508800      -0.52966300      -0.91461300      -0.72319070      -2.09447170      -0.79679573
H       -4.38567000      -0.54655500      -1.72576900       1.19111762      -2.35906292       1.76820331
Cl      -4.29472000      -0.74164000       0.60560500      -1.68871097      -0.36048977       2.91196944
I        2.00575700       0.43690700      -0.01862100      -0.03097408      -0.00869393      -0.02240305
6
Properties=species:S:1:pos:R:3:forces:R:3 charge=-1.0 dipole_moment="-0.10207299214565932 0.8801963296471539 -0.13029401278502897" energy=-15.03496000067918 pbc="F F F"
C       -0.07106700       0.25216500      -0.10106600       5.33158133       3.14059606       3.35113446
H        0.83833700      -0.21170300       0.35525700      -0.38908096       0.92626312      -1.59819373
H       -0.66261900       0.26116300       0.67599600      -3.47143587      -0.54519475       3.86962625
H       -0.50598400      -0.17129700      -0.85284700      -1.78362530      -1.97967554      -4.94081424
F        0.00862800       1.75234300      -0.22508700       0.43846980      -0.50176727      -0.86884627
F        0.07544600      -1.90691600       0.27264100      -0.12545442      -1.03930991       0.18708016
6
Properties=species:S:1:pos:R:3:forces:R:3 charge=-1.0 dipole_moment="-1.415697207877233 -3.1542560154636767 -0.6520309917683424" energy=-14.381714703696698 pbc="F F F"
C       -1.58473900      -3.19265600      -0.59679900       2.04523713      -1.30135265       4.83131198
H       -2.47192000      -2.57748000      -0.47886500      -0.19006727      -0.53076726       0.19363751
H       -1.13283000      -3.74260800       0.41702900      -2.37261829       1.24784799      -1.88227134
H       -1.71291800      -4.08982600      -1.19994400       0.50861207       0.81552519      -1.32859246
F       -0.53567500      -2.29696200      -0.72027000       0.00935213      -0.26214558      -1.82560422
Cl       1.15571700       2.95520600       0.66617600      -0.00011210       0.03024440       0.01136376
5
Properties=species:S:1:pos:R:3:forces:R:3 charge=-0.0 dipole_moment="-0.26954170397279814 0.20642144629674314 -0.28129472981942105" energy=-11.651915138239463 pbc="F F F"
C       -1.02621100       0.95994200      -1.42506900      -1.05268736      -3.87602315       3.51319059
H       -1.94293600       1.09131700      -0.90384300      -1.15516743      -0.46918780       0.47475835
H       -1.07009400       0.00135700      -1.91514900       0.42142389       1.07238047      -1.74421852
H       -0.71252600       1.92273700      -1.39790800       2.29995788       2.35285216      -1.64416095
I        0.18646800      -0.16556700       0.24089300      -0.51309350       0.91971298      -0.59923935
5
Properties=species:S:1:pos:R:3:forces:R:3 charge=0.0 dipole_moment="-0.20245790898962 -0.17155395989269165 -0.3415309716979031" energy=-12.933948869166608 pbc="F F F"
C       -0.76942100      -0.65022100      -1.23355100       1.26444446      -0.24037554      -0.21181109
H       -0.12082200      -0.61433900      -2.12971300      -0.30987195       0.80218836       0.63760998
H       -1.63577400      -0.01293800      -1.27248800      -0.26157069      -0.25796754      -0.39031457
H       -0.95876900      -1.73467000      -1.17713400      -0.22217675       0.66209202       1.01298233
Br       0.20948300       0.17895100       0.34230400      -0.47029491      -0.96594502      -1.04800744
6
Properties=species:S:1:pos:R:3:forces:R:3 charge=-1.0 dipole_moment="0.032046971871746224 -0.057346934308803464 0.926234746966208" energy=-13.152217009629059 pbc="F F F"
C        0.17094400      -0.06432700      -0.62217200       0.06022604      -0.66439265      -0.22127481
H        0.41511000       0.99405100      -0.76204200      -0.32456992      -0.95245804       0.44619648
H       -0.86387700      -0.43098900      -0.71701300       1.21304708       0.54378785      -0.09208510
H        0.99893500      -0.81369700      -0.75341400      -1.24062679       1.14014396       0.46530594
Cl       0.06647700       0.07864400      -2.88767100       0.05155371      -0.04156291      -1.62865874
Br      -0.07731300      -0.02001000       1.57302600       0.24039816      -0.02553466       1.03020872
6
Properties=species:S:1:pos:R:3:forces:R:3 charge=-1.0 dipole_moment="0.9805177452258468 -0.0504125961415749 0.08535575488673701" energy=-14.82647210990872 pbc="F F F"
C        3.17553800      -0.39680300      -0.01916200       2.66935036      -3.24134166       2.77269534
H        4.39163000      -0.51223100      -0.15629900      -3.09429306       0.74401509      -0.16959049
H        2.99226400      -0.91867000       0.99516000       0.37405389       1.08641149      -1.25302259
H        2.76988900       0.57165800       0.06572200      -0.17646511       1.23015006      -0.45546942
F        2.49373400      -1.17827900      -0.89603400       0.20488197       0.11112257      -0.95494532
I       -0.97454000       0.26121800       0.13725800       0.02165692       0.06873022       0.05937552
6
Properties=species:S:1:pos:R:3:forces:R:3 charge=-1.0 dipole_moment="-0.059264143342676254 0.027165312104294796 -0.05988169314740423" energy=-14.567409741793549 pbc="F F F"
C       -0.22719400       0.64235200       2.01008000       3.68470272       1.87138323       2.58887328
H       -1.10683600       0.07887200       1.78636700      -0.50472044       0.44996520       0.25063938
H        0.13447800       1.61697700       1.60378900      -1.87303440      -0.62064687       0.15477837
H        0.69728800       0.11746100       1.90909600      -0.12836799      -1.14985398      -0.14270961
F        0.00176300       0.94504400       3.63843400      -1.16221945      -0.48701891      -2.48627700
I        0.03061100      -0.26741200      -0.94538900      -0.01584211      -0.06380450      -0.36433357
6
Properties=species:S:1:pos:R:3:forces:R:3 charge=-1.0 dipole_moment="0.30915061818350165 -0.330000200279717 0.7736412065280188" energy=-14.797513821445136 pbc="F F F"
C        0.30021100      -0.34779100       0.77078100      -2.65472695       1.32763190       0.84199213
H        0.15690300       0.78870500       1.02639400      -0.28075523      -2.35375616      -1.27040788
H        1.00049600      -0.44455400      -0.07355600      -0.16406159      -0.43125734       1.02862903
H       -0.68137400      -1.00585700       0.66720400       2.10811140       2.00384082      -0.44570951
F        0.73901300      -0.78017700       2.02033000       1.64353822      -1.20442771       1.48401309
Cl      -0.52520000       0.57470800      -1.43692300      -0.65281188       0.65836290      -1.63901925
6
Properties=species:S:1:pos:R:3:forces:R:3 charge=-1.0 dipole_moment="0.9437452208637656 2.734507360272332 -0.5668281690954585" energy=-15.149887342150715 pbc="F F F"
C        0.83471800       2.50812800      -0.76811000      -0.10655681       2.95570185      -2.30485532
H        1.65241800       1.98687100      -1.18924800       0.90515334      -0.31988177      -0.68361062
H        0.39526900       3.30689000      -1.43921600       0.69990061      -1.16676876       0.04777676
H        0.07813800       1.83646600      -0.60784300      -1.84449823      -1.68664483       1.26731330
F        1.25606300       3.21611600       0.30122800       0.33568377       0.17090381       1.69796951
Cl      -1.08463000      -3.00729600       0.30199500       0.01025459       0.04775567      -0.02447433
6
Properties=species:S:1:pos:R:3:forces:R:3 charge=-1.0 dipole_moment="1.9266918894861005 -1.770298856676063 -0.6176344730816928" energy=-13.364977243446774 pbc="F F F"
C        0.97157900      -1.13616100      -1.20970400      -3.24380169       1.32938179       1.00012475
H        1.52476300      -1.13521700      -2.14428400       0.74000520      -0.86689120       0.47472904
H        0.55727300      -0.03763900      -1.18271600       0.30838996      -2.32937902       0.33139568
H        0.10046000      -1.92003700      -1.14236400       1.73825459       1.85160528      -0.69283779
Cl       1.79694800      -1.39047200       0.39182600       0.37841191       0.07472398      -1.02659580
Cl      -2.26824100       1.97340500       0.29803200       0.07894676      -0.05926239      -0.08565374
6
Properties=species:S:1:pos:R:3:forces:R:3 charge=-1.0 dipole_moment="1.9806981280646145 -0.31821806968651306 1.3479355368873225" energy=-12.929998209621981 pbc="F F F"
C        0.02950500      -1.30704900      -1.04286300       4.22553174       0.43176436      -0.72871034
H       -0.11519000      -0.76220500      -1.98245400      -1.68758534      -0.19109006       0.82020665
H       -0.55887800      -2.12217500      -0.65329800      -0.57954726       0.45606334      -0.32509905
H        1.12939800      -1.66881100      -1.23824300      -1.82793673       0.12270642       0.88665579
I        0.40468900       0.21241900       0.51646400      -0.39437383      -0.67708413      -0.62866511
F       -2.45342900       0.12636700      -1.91571400       0.26314626      -0.14197427      -0.02429281
6
Properties=species:S:1:pos:R:3:forces:R:3 charge=-1.0 dipole_moment="-0.7929958630043913 -1.8953349646969297 5.2542174573591165" energy=-11.922391277052347 pbc="F F F"
C        1.17921300      -1.11393800      -0.05042000      -0.33656926       3.80798405      -1.31797432
H        1.95088900      -1.36274700       0.60138900       1.08372109      -0.20979946       1.27119618
H        1.26185000      -0.02000800      -0.42945900       1.73874361      -2.77164787      -0.82435333
H        1.03818000      -1.87725100      -0.78484600      -0.91066784      -0.07021272      -0.36069032
I       -0.39864000      -0.11977400       0.95669500      -1.58771031      -0.73743461       1.21005997
F        1.08908200       1.81018300      -5.53215600       0.01191192      -0.01855205       0.02231615
6
Properties=species:S:1:pos:R:3:forces:R:3 charge=-1.0 dipole_moment="1.225416724857108 5.3757350661069445 0.6341463895829164" energy=-12.802607602017964 pbc="F F F"
C       -0.27074400       0.67440800      -1.18917500       0.53609613      -1.79421928       1.39035448
H        0.53412300       0.06849400      -1.54992000       0.59829009      -0.32425624       0.02066241
H       -0.47461900       1.35501700      -1.93931300      -0.93565176       1.45721653      -1.15753593
H       -1.06445300      -0.02912400      -0.90953100       0.03008037       0.73488099      -0.01093182
I        0.48855300       1.71752500       0.52601900      -0.22996154      -0.11245029      -0.22973066
Cl      -1.36846400      -5.67468700      -0.96148100       0.00143210       0.03893370      -0.01223022
6
Properties=species:S:1:pos:R:3:forces:R:3 charge=-1.0 dipole_moment="-0.820235259918165 0.03823305346323752 0.6057544447045345" energy=-13.815863987877442 pbc="F F F"
C       -1.61926600      -0.15807300       0.66389800      -1.03575150       0.26539443      -0.85836285
H       -1.24959600      -1.17500200       0.66988900       0.12557166       0.11455345      -0.09790967
H       -1.24451000       0.37641300      -0.22680800      -0.10219982      -0.54434783       0.66796082
H       -2.72350500      -0.14959900       0.68147300       0.43087938      -0.01227188       0.16653756
Cl      -1.02941400       0.67491200       2.10228000       0.07799082       0.24307160       0.53912129
Br       0.92666400      -0.27362500      -1.16704900       0.50421599      -0.06579248      -0.41626523
6
Properties=species:S:1:pos:R:3:forces:R:3 charge=-1.0 dipole_moment="-0.453854126412184 0.5050403796356032 4.519469717453119" energy=-12.703631746384813 pbc="F F F"
C       -0.25986900      -1.36116900      -0.45253300      -2.48470554       1.49556351      -1.52307329
H       -1.40469900      -1.43949300      -0.57287300       1.97425822      -0.07613808       0.57145240
H        0.17104800      -2.05389100       0.20239000       0.39346006      -1.35608424       0.32521835
H        0.13132200      -1.31920400      -1.51388200       0.15352161       0.56870389       1.48566939
I       -0.02021900       0.39605900       0.94410500      -0.01116784      -0.57195171      -1.08302689
F        0.41479500      -0.89016700      -5.04866800      -0.02537576      -0.06018850       0.22382483
6
Properties=species:S:1:pos:R:3:forces:R:3 charge=-1.0 dipole_moment="-0.2552539192875744 0.2925185784554801 -2.9978418155652165" energy=-12.982735334143753 pbc="F F F"
C       -0.61573800      -0.55098500      -2.40375200      -2.03314420       2.78818830       0.50416251
H       -0.12268900      -1.42295000      -2.57742800       1.75154822      -2.33022285      -0.18156463
H       -0.46952600       0.13933400      -3.24527500      -0.30688690      -0.36351956       0.27610462
H       -1.69314500      -0.81034400      -2.24920500       0.96377449       0.61068333      -0.02467642
Br       0.09571000       0.39686200      -0.81402300      -0.39138261      -0.74525179      -0.54498598
Cl       0.15470200      -0.49942900       2.99913000       0.01578503       0.03965156      -0.03016676
6
Properties=species:S:1:pos:R:3:forces:R:3 charge=-1.0 dipole_moment="0.4671788085741815 4.258998110869385 2.3938918651487042" energy=-11.46581288355571 pbc="F F F"
C       -1.01100300       0.44265400       1.03391900      -2.22561083      -2.95892498      -5.91493845
H       -1.89679800       0.79983300       0.50887300       0.08749825      -0.27109354       0.58676024
H       -1.09208500       0.11079200       1.91718500      -0.50315104       0.45475825       8.15760495
H       -0.88352100      -0.68580300       0.90631300      -0.72752763       0.75697962      -1.96638190
Br       0.47745900       1.08886900       0.32051600       3.38423176       2.00247402      -0.89802624
F       -0.75251800      -4.55457500      -2.30599400      -0.01568630       0.01543485       0.03469138
6
Properties=species:S:1:pos:R:3:forces:R:3 charge=-1.0 dipole_moment="0.5087298031476544 0.3787268378284355 0.48430298310802744" energy=-15.120499396055916 pbc="F F F"
C        0.24472300       0.21526000       0.03329500      -2.20923033      -2.00641604       3.73411779
H        0.05589200      -0.90640100       0.03772800       0.81232776       2.07788706      -0.19439598
H       -0.59267300       0.74778900       0.46273300      -0.36304082      -0.34415298      -0.73465216
H        0.56821800       0.68990900      -0.85060100       1.46896493       0.29920290      -0.40544346
F        1.01328100       0.48637000       1.51057100       0.35690874      -0.12755141      -2.17082370
F       -1.17992200      -0.68890900      -1.49386300      -0.06550297       0.10200647      -0.22823890
6
Properties=species:S:1:pos:R:3:forces:R:3 charge=-1.0 dipole_moment="0.12892132710082638 -1.3185053463218146 1.096285314403688" energy=-12.98025889922238 pbc="F F F"
C       -0.31214300       0.67664000      -0.91097600      -0.81284147      -0.85540917       0.00382889
H        0.66195900       0.86248400      -1.28884300       0.53728758      -0.17245316       0.01472008
H       -0.63308400       1.34380100      -0.11195100      -0.36406412      -0.30286158      -0.93185373
H       -0.97437900       0.02989800      -1.57206900       0.80531791       1.36697595       1.39467702
Cl      -0.40364500       2.79305100      -2.50881200      -0.11862968      -0.27204279       0.13216500
I        0.18264800      -1.01467700       0.96393500      -0.04741475       0.23584834      -0.61341075
6
Properties=species:S:1:pos:R:3:forces:R:3 charge=-1.0 dipole_moment="0.9720816021350381 0.26775043911503954 -1.2910865583336597" energy=-12.766142887957772 pbc="F F F"
C        2.05787900       0.54361000      -3.12956200       6.69813973       1.06320780       1.93191266
H        2.50370500      -0.13705700      -3.84020600       0.03418025      -0.84695178       0.66893270
H        2.53954400       1.49676900      -3.31305500      -0.55195778       0.23807646      -0.26276059
H        1.09536800       0.56360800      -3.07180900      -5.80536780       0.06554102       0.11444238
Cl       2.55943300       0.43766500      -1.21988400      -0.32001649      -0.52059804      -2.43068769
I       -1.16974100      -0.23821300       0.93849900      -0.05542836       0.00019592      -0.02048501
6
Properties=species:S:1:pos:R:3:forces:R:3 charge=-1.0 dipole_moment="-0.27916743743295436 0.25639694206239233 1.1756518416212633" energy=-12.82680625664284 pbc="F F F"
C       -0.47536600       0.85992600       0.31964900      -4.75555185      -0.27965583       3.16971792
H       -1.16170100       1.72455500       0.59946400       1.21196207      -0.88570345      -0.17767147
H        0.45326100       1.08855600       0.00635300       2.64763790       0.58111924      -0.93186247
H       -1.05525200       0.13981100      -0.25199900       0.69159903       0.21467119       0.32793189
Br      -0.13124800      -0.19509700       2.12222200      -0.23569819       0.72676196      -0.72235612
Br       0.26313100      -0.03668800      -2.18712800       0.43971627      -0.35716585      -1.66610891
6
Properties=species:S:1:pos:R:3:forces:R:3 charge=-1.0 dipole_moment="0.12258919259921944 0.1344163032553213 0.1797562066564312" energy=-13.081213863970698 pbc="F F F"
C        0.29810700       0.09041700       0.10310900      -0.95623036      -1.10828439       1.26714052
H        0.32839400      -0.76813700       0.89459600      -0.47124725       1.80093449      -2.16066167
H        1.28227900       0.63263400       0.11915200      -1.57890789      -0.43990396      -0.69066110
H       -0.57955100       0.22188600      -0.62044000       2.12136184       0.06156816       1.85188244
Cl       0.61101500      -1.41401300      -1.62034100       0.69352376      -0.63060218      -0.55253782
Cl      -0.77688400       1.37702000       1.56081400       0.19116513       0.31655939       0.28512148
6
Properties=species:S:1:pos:R:3:forces:R:3 charge=-1.0 dipole_moment="0.006889887281541212 0.001042479104810767 -0.5737392234654222" energy=-13.824180141105424 pbc="F F F"
C        0.02222000       0.01243700      -1.05265700       0.14135515       0.39664000      -0.46706612
H        0.02019300       1.06867200      -0.70396800       0.11721146      -1.15121153      -0.61915717
H       -0.87837700      -0.51537200      -0.77427100       0.00437602       0.19701079      -0.21495915
H        0.89490600      -0.56925000      -0.74359900      -0.29541412       0.53699242      -0.38246551
Cl       0.02272500       0.02895000      -2.98383700       0.04687636       0.04572656       0.61738671
Br      -0.01589600      -0.01573800       1.69322900      -0.01437658      -0.02509448       1.06519372
6
Properties=species:S:1:pos:R:3:forces:R:3 charge=-1.0 dipole_moment="0.045263701882788714 -0.010163377506089134 0.19919923572696785" energy=-12.761871276743971 pbc="F F F"
C        0.15480100      -0.02367700       0.03121300       0.68006661      -0.83873505      -0.12027056
H        0.89528500       0.74291500      -0.08180300       0.22231199      -0.04817374       0.30362005
H       -0.84668700       0.28962300      -0.07569500      -0.72472050      -0.08929031       0.20164547
H        0.44884500      -1.07981900      -0.07602000      -0.37586497       0.98189666       0.29692901
I       -0.01224700       0.04115600      -2.75614800       0.07388940      -0.01922260       0.10120686
I       -0.01466400      -0.03758400       2.75702000       0.12445117       0.01342424      -0.78304033
6
Properties=species:S:1:pos:R:3:forces:R:3 charge=-1.0 dipole_moment="2.6095157031371525 0.44838243405495387 2.04746071248098" energy=-13.947568605196542 pbc="F F F"
C        0.63015400      -0.26327000      -0.03010000       0.06891431      -0.11486096      -1.77762898
H        0.80709300      -1.31587700       0.07488000       0.12199166      -0.45605100       0.02058323
H        1.20109100       0.10664700      -0.91846000      -0.70900078      -0.26278116       0.83167892
H       -0.43840800      -0.11942800      -0.15883200       0.03288287       0.22973271      -0.13584476
Cl       1.22656100       0.52759500       1.40058000       0.31497610       0.58270664       0.91929132
F       -2.91136000      -0.67342600      -2.51409500       0.17025178       0.02195671       0.14269572
6
Properties=species:S:1:pos:R:3:forces:R:3 charge=-1.0 dipole_moment="1.1791549947551958 -1.8458018610793117 0.29622281892942703" energy=-13.180633277920276 pbc="F F F"
C        0.62105200      -2.20760600      -0.73410800      -0.02213669      -0.95043715       0.80735885
H        0.96536000      -3.27816300      -0.64020300      -0.17898633       1.36474063      -0.39631141
H        0.94383200      -1.67985300      -1.63127500       0.07142731      -0.21234640       0.30297111
H       -0.46508700      -2.18687900      -0.64317400       0.22552742       0.20321127      -0.09166960
Br       1.31020200      -1.26795200       0.86149300      -0.09890160      -0.31453696      -0.56838251
Br      -1.45792800       1.85053800      -0.65237000       0.00293569      -0.09190409      -0.05438346
6
Properties=species:S:1:pos:R:3:forces:R:3 charge=-1.0 dipole_moment="-0.07531250060744588 -0.02145813588836376 0.29542905311358125" energy=-14.800162705708651 pbc="F F F"
C       -0.12236300      -0.10243600       0.74221500      -1.91102862       0.72992339       2.25358906
H       -0.27720500       1.02191600       0.75942000       0.15710778      -1.97266054       0.12786303
H        0.87359500      -0.40869500       0.55316700       0.18601316      -0.40660457      -0.12583186
H       -1.02387100      -0.72611800       0.46152000       1.73601361       0.96384546       0.35612044
F       -0.10963200      -0.46773900       2.44489500      -0.14576408       0.51196427      -1.70526836
Cl       0.12637300       0.29042200      -1.66067400      -0.02252338       0.17368215      -0.90715571
5
Properties=species:S:1:pos:R:3:forces:R:3 charge=-0.0 dipole_moment="0.13959165637463566 -0.23188016189696956 0.11741383947990507" energy=-12.96620852364588 pbc="F F F"
C        0.33894800      -0.51702700       0.25578900       0.10059648       0.02453861      -5.75133606
H       -0.54209200      -1.23583100       0.24810700       1.99342580      -0.14878050       2.24244435
H        1.15593600      -0.01695300       0.95426700      -1.67506201      -2.61004683      -1.06420745
H        0.56902800      -0.70772200      -1.02356600       1.66497351      -1.00632420       3.93327134
F       -0.35739500       0.56251900      -0.19039400      -2.08480692       3.74049567       0.64001139
5
Properties=species:S:1:pos:R:3:forces:R:3 charge=-0.0 dipole_moment="-0.2498668952840345 -0.16506095551907332 -0.25026906996406306" energy=-12.855182818410393 pbc="F F F"
C       -0.89284700      -0.56367300      -1.05708200      -2.94744861       1.26564568       0.76159424
H       -1.03922000       0.01520100      -2.01526800       0.66809915      -0.73848979       1.30527872
H       -1.86822800      -0.64524800      -0.49034100       0.77248235       0.48991655      -1.06407683
H       -0.61754900      -1.56143200      -1.10038000       0.85214438      -1.70153717      -1.08073141
Br       0.25377400       0.15924300       0.28424200       0.65416120       0.68436652       0.07765144
6
Properties=species:S:1:pos:R:3:forces:R:3 charge=-1.0 dipole_moment="-0.1511584118431401 2.0500155800535826 3.4187932905561724" energy=-12.600740094612288 pbc="F F F"
C        0.24133500      -1.18182800      -0.56914500      -4.19564524      -0.19203057       0.48448586
H       -0.72231300      -1.71939900      -0.21253400       2.19186458       0.30432351      -0.11563743
H        1.10957600      -1.82477100      -0.69332300       0.23282986       0.73127373       0.61623845
H       -0.18109400      -0.81417700      -1.49370700       0.91911751       0.29570722      -0.52101610
I       -0.05986700       0.66319800       0.79822600       0.85437250      -1.27151345      -0.78974062
F        0.16875300      -2.63335300      -4.05461800      -0.00273668       0.13247919       0.32573874
6
Properties=species:S:1:pos:R:3:forces:R:3 charge=-1.0 dipole_moment="0.12421905840775607 0.34752125772148573 1.4900413141893472" energy=-13.659966089278893 pbc="F F F"
C       -0.30579500       0.41579200       0.57383000      -1.21269484      -0.23019603       1.02850305
H       -0.02813500       1.31500900       0.11655600       0.59978648       1.16511143      -0.57354014
H       -1.21076000       0.54817900       1.13866100      -1.31160775      -0.04795622      -1.34952536
H       -0.22137800      -0.38330400      -0.13196300      -0.33190630      -0.33660062      -0.15430682
Cl       0.60199300       0.11062400       2.01833800       2.32163228      -0.41907802       1.79758845
Cl      -0.40816700      -0.34442600      -2.28694000      -0.06455989      -0.13152119      -0.74752670
5
Properties=species:S:1:pos:R:3:forces:R:3 charge=0.0 dipole_moment="0.3787532966889637 -0.1719455510285089 0.08539861824079269" energy=-12.08557397786266 pbc="F F F"
C        1.42514300      -0.49898800       0.43834400      -1.69863954      -2.45977921      -0.43587915
H        1.41196100      -1.32629400      -0.33776600       0.95816435       0.90926556       1.13840743
H        1.28340700      -1.12759100       1.53374100       1.09202781       2.82236134      -3.02061655
H        2.04924900       0.36734800       0.04496400      -0.19896792      -1.49576817       1.80550231
Br      -0.37987100       0.14515600      -0.11060000      -0.15271171       0.22438019       0.51284667
6
Properties=species:S:1:pos:R:3:forces:R:3 charge=-1.0 dipole_moment="-1.2253796824523686 -0.8428454145939263 -1.1719259048816832" energy=-14.603335705161655 pbc="F F F"
C       -3.32636300      -2.34323800      -3.52333200      -2.54410574      -0.18485205       0.04376326
H       -4.30503000      -1.80274300      -3.67673800       0.97602529      -0.02284374       0.08191895
H       -3.54210100      -2.83999500      -2.45984200       1.47075339       0.49951756      -2.56075106
H       -3.15955700      -2.85915600      -4.48734500      -0.69259199      -1.39804362       1.20890914
F       -2.28466900      -1.48737800      -3.60710500       0.78846741       1.10621208       1.20213583
I        0.97220600       0.65939100       1.21184600       0.00254848       0.00061347       0.02361661
6
Properties=species:S:1:pos:R:3:forces:R:3 charge=-1.0 dipole_moment="-0.034920404125107884 0.008054077144781662 0.013895664372195922" energy=-15.071153827459668 pbc="F F F"
C       -0.05598800       0.01780200       2.11701500       0.98830848      -0.14796391       3.45824046
H       -0.10251500       1.08767800       1.95447300       0.24739002      -0.37991394      -0.40256228
H        0.87347100      -0.53044900       1.87934600      -1.01069610       0.68127605      -0.20495499
H       -0.98717700      -0.49417800       1.98669000      -0.02731694      -0.19546402      -0.45160762
F        0.03627400      -0.00092800       3.74329800      -0.16469562       0.03455203      -2.07798373
I        0.00425800      -0.00304700      -0.98513700      -0.03291681       0.00745003      -0.32060887
5
Properties=species:S:1:pos:R:3:forces:R:3 charge=0.0 dipole_moment="-0.15843565684281405 -0.16666965423918742 -0.289168886712611" energy=-12.888182120156895 pbc="F F F"
C       -0.59607000      -0.62161500      -1.20268400      -2.03094745      -2.76764364      -0.00991417
H        0.02619100      -1.04630200      -1.99816700       0.61286568       0.88690159       0.44404600
H       -1.33404800       0.08188200      -1.60900600       0.25952923      -0.49947591       0.12704593
H       -1.09428800      -1.59716400      -0.79416600       0.40099442       2.06134869      -0.77553579
Br       0.17081600       0.17975100       0.33192700       0.75777923       0.31940508       0.21445830
6
Properties=species:S:1:pos:R:3:forces:R:3 charge=-1.0 dipole_moment="0.703653816190477 -1.820270648201238 3.156185924750603" energy=-12.288093767161554 pbc="F F F"
C        0.40241400      -2.67640600       1.82171200       2.40121204       1.03890316      -4.76822430
H       -0.32812800      -2.42725400       0.98902600       0.14248643      -0.51982156       1.87060213
H        0.31513900      -3.47613600       2.47572900      -0.82431219      -1.86817090       0.26050676
H        1.36934900      -2.81768400       1.10530700      -1.86906873       0.32153447       2.23811050
I        0.69092900      -1.14872400       3.19144600       0.14881083       1.05469488       0.39247687
I       -0.76207700       1.61626200      -3.48390500       0.00084692      -0.02710869       0.00648072
6
Properties=species:S:1:pos:R:3:forces:R:3 charge=-1.0 dipole_moment="2.711699822497031 -0.9821899452112287 1.6110906011058257" energy=-12.955636684372944 pbc="F F F"
C        1.65631000      -1.28706900       0.37001200      -1.58075394      -0.67450428       3.71429355
H        1.94077200      -0.96473600      -0.58908200       1.12439543      -0.06223510      -0.87619243
H        0.63029200      -0.92729500       0.54462400       0.46954981      -0.04749291      -0.10910786
H        1.67933000      -2.33741100       0.75965300       0.21176687       0.85171192      -1.56972390
Br       2.68586200      -0.48815400       1.94823600      -0.28684412      -0.02736425      -1.18460810
Br      -3.09124100       0.82963600      -2.03210100       0.06206849      -0.03979400       0.02581851
6
Properties=species:S:1:pos:R:3:forces:R:3 charge=-1.0 dipole_moment="0.17736432566468266 0.34227711156479806 -1.9202994287824893" energy=-12.723005900372522 pbc="F F F"
C       -0.40167000      -0.20462100      -2.72125800       0.99361523       2.95715298      -1.60584842
H        0.46280200      -0.06962800      -3.43567100      -1.75219922      -0.95328439       0.08639524
H       -1.29929400       0.38333200      -3.01686600       0.95553411       0.05779069       0.13073855
H       -0.79101200      -1.14975900      -2.54556600       0.17123137      -2.00605248       0.54966282
Br       0.48745100       0.60145600      -1.21693700      -0.30344573       0.04273020       0.55008396
Br      -0.37209300      -0.54249100       1.94052700      -0.06585830      -0.09809788       0.28870148
5
Properties=species:S:1:pos:R:3:forces:R:3 charge=0.0 dipole_moment="-0.2849301772559946 0.22857280433094554 0.38850074090754966" energy=-12.62888120305485 pbc="F F F"
C       -0.74635500       0.54209000       0.92649300       7.61411998      -1.30179899      -0.30571602
H       -0.44849500       1.49924200       0.54819000      -0.85206777       0.75377294       0.73016764
H        0.02040000       0.11893800       1.71975300      -2.55369493       1.35595003      -1.02087047
H       -1.68381900       0.17684200       0.86484700      -2.87518672      -1.00691504      -0.13496544
Cl       0.38765000      -0.29691600      -0.51127900      -1.33238073       0.19853083       0.73070654
5
Properties=species:S:1:pos:R:3:forces:R:3 charge=-0.0 dipole_moment="-0.1332732804805034 -0.18859875784495297 -0.3265235060063126" energy=-13.180897994042464 pbc="F F F"
C       -0.50665500      -0.71608000      -1.23836100       0.06495841      -0.12178288      -0.42905339
H       -0.13368500      -1.74141300      -1.22469900      -0.06496870       0.26889524       0.06387958
H       -0.13343800      -0.19053200      -2.12325900      -0.09047713      -0.13574294       0.36172082
H       -1.59352200      -0.70779100      -1.22930400       0.13320269       0.03528171       0.08551953
Br       0.14001600       0.19817800       0.34306900      -0.04309118      -0.04728568      -0.08290369
6
Properties=species:S:1:pos:R:3:forces:R:3 charge=-1.0 dipole_moment="-0.8294323598377645 -0.3096480447614316 1.3872221821767927" energy=-13.354892802474419 pbc="F F F"
C        0.31390500       0.03254900      -0.35801000      -2.40711478      -2.79128956      -1.44679328
H        1.31273400       0.03335500      -0.06559100       1.13612686       0.10929606       0.51810149
H       -0.14405900       0.89988100      -0.70088500      -0.08624509       1.49718382      -0.23837625
H        0.01812800      -0.78671400      -1.11269400       0.70351456       1.18917490       1.87742995
Cl       1.54117200       0.54174100      -2.54869600       0.51927135       0.20876382      -0.82667709
Br      -0.83629000      -0.27289800       1.35300200       0.13416789      -0.21370034       0.11720786
6
Properties=species:S:1:pos:R:3:forces:R:3 charge=-1.0 dipole_moment="2.097806632294024 1.4314190628030847 0.4931455342965492" energy=-13.407669631875233 pbc="F F F"
C        2.65054500       2.05899500       0.18633600      -1.09386204       2.77218575       1.88630797
H        2.85997000       3.16859300      -0.06721000       0.03207246      -2.30438635      -0.49720305
H        1.65526100       2.12473600       0.66882500       0.18849273      -0.54224364      -1.20345943
H        2.78405200       1.23798600      -0.49560600      -0.00312338       0.31771433      -0.45166624
Cl       3.59944700       1.76226800       1.66855300       0.84785836      -0.27191938       0.27130694
Br      -2.41123300      -1.39553800      -0.84541200       0.02936200       0.02846160      -0.00406646
6
Properties=species:S:1:pos:R:3:forces:R:3 charge=-1.0 dipole_moment="-1.5982210113449131 1.2847417235789993 0.11277824711536583" energy=-14.40205731779998 pbc="F F F"
C       -3.14803900       2.66464900       0.22575800       0.86874548      -3.06248286       4.20640171
H       -4.07121000       3.24282800       0.33695500       0.23050302      -0.39049095       0.30857714
H       -2.70404700       2.06491200       1.20382600      -2.18402169       1.62078550      -1.60419829
H       -3.33883900       1.70983900      -0.34823300       0.98487245       1.80602116      -1.06966744
F       -2.11234500       3.55358800       0.08706500       0.13124403       0.02993638      -1.84578121
Br       1.37181200      -1.57107900      -0.09516200      -0.03065681      -0.00408291       0.00451126
6
Properties=species:S:1:pos:R:3:forces:R:3 charge=-1.0 dipole_moment="-0.9582706061165324 0.37651911050596315 0.4547431441259313" energy=-12.859594832108511 pbc="F F F"
C       -2.00749400       0.13511200      -0.11604200      -0.91227169      -1.03214373       1.35390446
H       -1.28025700       0.19377000      -0.86931800       0.65082648       0.37636737      -1.07547608
H       -2.87279200       0.75544700      -0.21736400      -0.44693233       0.32661292      -0.28842226
H       -2.31606600      -0.95813400      -0.06573000       0.66153101       1.44725145       0.79198211
Br      -1.05761700       0.95885700       1.44324100      -0.87086562      -0.69946455      -0.31289145
I        1.04774900      -0.64833500      -0.91820300       0.91802994      -0.41861368      -0.46862318
6
Properties=species:S:1:pos:R:3:forces:R:3 charge=-1.0 dipole_moment="0.019261521287313253 -0.006494062728039459 -0.5923059350752652" energy=-12.934959700885202 pbc="F F F"
C        0.01212400      -0.02267100       0.53190600      -0.02222410      -0.44151604      -0.12186516
H        0.60549600       0.88084700       0.45956600      -0.29716967      -0.30387253       0.32597991
H        0.55097000      -0.98840700       0.58672000      -0.81149627       1.00100201      -0.06296786
H       -1.08619000       0.04945700       0.52959500       1.09586596      -0.21840186       0.07606661
Br      -0.05724400       0.00041600       3.16782300       0.04601966       0.03336469      -0.59199706
I        0.03510400       0.00338800      -2.18190800      -0.01101666      -0.07062718       0.37437836
6
Properties=species:S:1:pos:R:3:forces:R:3 charge=-1.0 dipole_moment="-0.762427941436171 1.0033358665453598 -0.655169012626986" energy=-13.134318401348185 pbc="F F F"
C       -0.22738400       0.35932100      -1.26498700       2.41495511      -1.46017690       1.87608784
H       -0.15533600      -0.69563700      -1.59686200       0.76649065       0.87115255       0.72498275
H        0.54229900       1.08541500      -1.46539900       0.88995452      -0.68057620      -0.58822320
H       -1.04494500       0.77442200      -1.63397100      -3.95063966       1.68975124      -1.94403696
Cl      -0.43999600       0.53590600       0.48975900      -0.93006579       0.66414222       0.22059758
F        1.05580300      -1.38117100       0.44002700       0.80908714      -1.08482152      -0.28726166
6
Properties=species:S:1:pos:R:3:forces:R:3 charge=-1.0 dipole_moment="-0.06962278723946344 -0.018997461859241897 1.306829580347934" energy=-13.06447643117986 pbc="F F F"
C        0.05784400       0.03787200       0.33184300       0.10220599      -0.71440009       0.87481740
H        1.09328900      -0.15329300       0.12656400       0.16725850      -0.06113981       0.20574638
H       -0.25545200       1.01201100       0.10514200      -0.25033753       1.13431012      -0.09927647
H       -0.60643100      -0.69353000      -0.07457200      -0.17902696      -0.38479904       0.19746999
I        0.17717200       0.06703700      -2.67740300       0.04501591       0.03553676      -0.48825458
I       -0.18808600      -0.07444100       2.63687100       0.11494066      -0.00964472      -0.69011191
6
Properties=species:S:1:pos:R:3:forces:R:3 charge=-1.0 dipole_moment="2.906177739151348 1.79899613680494 -1.1324180635181975" energy=-13.225690385825876 pbc="F F F"
C        0.12503900      -0.25793700      -1.38361300      -0.07158312      -0.22021346      -1.23549487
H        0.91008300      -0.91493600      -1.87314800      -1.33775073       0.69781493       0.85050968
H       -0.28942000       0.47140700      -2.08987100       0.66044446       0.02136176       0.10404484
H       -0.75462900      -0.69726700      -0.95614400      -0.19539306      -1.27963608      -0.12848678
Br       0.82425000       0.61585900       0.14436700       0.81162842       0.70801553       0.56141893
F       -3.27389100      -2.09629500       0.90755400       0.13226064       0.07266504      -0.15231268
6
Properties=species:S:1:pos:R:3:forces:R:3 charge=-1.0 dipole_moment="-1.9747268924206123 1.387194135784633 2.260622818085886" energy=-12.610246116449655 pbc="F F F"
C       -2.10201800       0.31828500       0.89356400       2.35730274      -0.47277603      -1.16377445
H       -1.88295000       0.79534200      -0.11058500       0.62142642      -0.51504651       1.50820357
H       -3.08111100      -0.02379600       0.72597500      -1.63919357      -0.13893008       0.96265452
H       -1.44663700      -0.55767800       1.17596300      -0.70688939       1.08593944      -1.03786135
I       -1.63048500       1.64716100       2.50900500      -0.58788073       0.03270906      -0.29019941
I        1.98940600      -1.68722900      -2.64396200      -0.04469966       0.00844762       0.02169908
5
Properties=species:S:1:pos:R:3:forces:R:3 charge=-0.0 dipole_moment="-0.07985813284618926 0.1756656668187727 0.32477192943934624" energy=-12.324866615721572 pbc="F F F"
C       -0.37738600       0.74744500       1.72576900      -0.61589701       0.78703068      -1.48988755
H       -0.80995600       0.07791800       2.50221500      -0.07134452       0.36341877      -1.28262216
H       -0.99376300       1.51090000       1.17740100      -0.04899597      -0.79167409       1.79923396
H        0.47237800       1.26219700       2.14858000       0.51978197      -0.20978044      -0.31453336
I        0.06784300      -0.13840900      -0.30533600       0.21643085      -0.14889979       1.28802148
5
Properties=species:S:1:pos:R:3:forces:R:3 charge=-0.0 dipole_moment="-0.1677809263813715 -0.22449284803749833 -0.2891900538010336" energy=-15.068954031394131 pbc="F F F"
C       -0.24858200      -0.36423000      -0.48102200       0.47180466       2.62995900      -0.64422234
H        0.57507200      -0.40930400      -1.26388600      -1.59204108      -0.30767468       0.76145900
H       -1.13697900       0.24797400      -0.72455300       0.56693703      -0.45134228      -0.92070594
H       -0.64999600      -1.27829500      -0.13186200       0.33372819      -1.22233853       0.45623355
F        0.30037700       0.40277800       0.55627100       0.21937785      -0.64844821       0.34729333
5
Properties=species:S:1:pos:R:3:forces:R:3 charge=-0.0 dipole_moment="0.2532853800642769 -0.12297549196293105 0.21496765824734917" energy=-12.935130304128263 pbc="F F F"
C        0.44993000      -0.12090600       0.46637900      -0.78959767      -7.12450271      -2.94816595
H        0.46580800      -1.20014200      -0.29148000       0.77327116       1.09063222       3.44855511
H       -0.06373900      -0.44747200       1.49019900       1.85322867       1.39850796      -2.22229565
H        1.52048900      -0.00712500       0.14029600      -1.18485853       1.64257149       1.35898342
F       -0.51357100       0.26446400      -0.45969900      -0.65199890       2.99172506       0.36274566
6
Properties=species:S:1:pos:R:3:forces:R:3 charge=-1.0 dipole_moment="-0.22408538158536417 0.13205088112410093 -0.09234142324339027" energy=-13.182311786565524 pbc="F F F"
C       -0.29543000      -0.05682700      -0.17887300       0.95904932       0.49494922       2.11488729
H       -1.26261000      -0.57785900      -0.23595800       0.70964098       0.60177857       0.54112418
H        0.32596000       0.07258000       0.76734700      -1.59311992      -0.48691915      -2.05797952
H        0.05150100       0.35652600      -1.09777600       0.68805605      -0.76323357      -0.26166890
Cl       0.90097700      -2.04120000      -0.04492200       0.10064944      -0.67516608      -0.42637173
Cl      -0.74464000       2.07000600       0.14137000      -0.86428308       0.82898080       0.09014391
6
Properties=species:S:1:pos:R:3:forces:R:3 charge=-1.0 dipole_moment="0.16176947326936625 -0.08869010049049977 1.0669853014319786" energy=-15.20534652399954 pbc="F F F"
C        0.14456400      -0.01458800       1.02611400       2.04115062      -2.06602398      -0.74271514
H       -0.17937500      -0.95721500       0.45031300       0.40787418       2.01138752       0.87259083
H       -0.61330500       0.74236300       1.13174900       0.09540747       0.34082032      -0.82307858
H        1.22518400       0.24628700       0.79240100      -2.04036489       0.47153573      -1.15275367
F        0.42234900      -0.40077000       2.33579400      -0.38868501      -0.90967796       2.47147361
Cl      -0.30006000       0.21547200      -1.73842900      -0.11501574       0.15228439      -0.62635677
6
Properties=species:S:1:pos:R:3:forces:R:3 charge=-1.0 dipole_moment="0.03491458317579168 -0.006853374054012307 -1.6676263067508348" energy=-13.13542939504714 pbc="F F F"
C        0.03454400      -0.00661500       0.25438600      -0.62871190      -0.58677566      -0.32617943
H        0.53842900       0.91021400       0.52704500      -0.08725193      -0.15190284      -0.21589041
H        0.56928800      -0.93159100       0.48218300      -0.14958371       0.53366850      -0.22471238
H       -1.03402400      -0.06084700       0.52343400       0.85002682       0.18425349      -0.41325241
Br      -0.05162700       0.00030600       3.19748000       0.01332397      -0.00688541       0.01171395
I        0.02879200       0.00209800      -2.16926000       0.00214070       0.02761314       1.16775863
6
Properties=species:S:1:pos:R:3:forces:R:3 charge=-1.0 dipole_moment="1.525882486660836 3.353972786502576 -1.3358284914868324" energy=-13.134220250516556 pbc="F F F"
C        0.08403900       0.72806000      -1.58270100       0.18697989      -1.42865775      -1.41209470
H        0.81506600      -0.01069200      -1.92118300       0.10254949       0.17885418       0.21028077
H        0.03053100       1.46245500      -2.38528300      -0.61521927      -0.14124870       0.18441804
H       -0.81452300       0.10770900      -1.40183700       0.24868534       1.03007348       0.26406826
Br       0.81537500       1.61281600      -0.08535600       0.06961725       0.31027767       0.82032132
Cl      -1.71020300      -3.66920000       1.07011600       0.00715332       0.05075512      -0.06726366
6
Properties=species:S:1:pos:R:3:forces:R:3 charge=-1.0 dipole_moment="-0.4464429995782374 1.2373935926637993 -1.3961848565921124" energy=-13.396336574870721 pbc="F F F"
C       -1.08234800       2.64933600      -3.28069100       1.19141587      -1.21978234       1.59868121
H       -2.02489400       2.15801400      -3.05542900      -0.15615648       0.44583549      -0.18107612
H       -0.40460500       1.84381700      -3.64423000      -0.56599189       1.10892099      -0.46381882
H       -1.15300200       3.59217600      -3.82927100       0.14462405      -0.54239276       0.07651861
Cl      -0.30804500       2.94835100      -1.60928100      -0.60718611       0.23624995      -1.02109673
I        0.28893100      -1.38890500       1.08624300      -0.00640102      -0.02914654      -0.00844093
6
Properties=species:S:1:pos:R:3:forces:R:3 charge=-1.0 dipole_moment="-1.1310157439102033 1.3799248284431174 -0.30148284040243156" energy=-13.035377836132442 pbc="F F F"
C       -0.99356200       0.77350800      -0.93624000      -2.08940251      -0.76484771      -0.04365991
H       -0.66738800       1.62301900      -1.50111500       0.13743884       0.87753094       0.12993276
H       -1.98384700       0.93682900      -0.39096100       0.61484183      -0.17266193      -2.26780829
H       -0.92380000      -0.07011300      -1.68026800      -0.43508314       0.42200445       1.22062720
Cl      -0.09678600       0.45825900       0.48513600       1.38806208       0.34737098       1.17155975
F        1.24241900      -1.65790900       0.10471800       0.38529629      -0.70921572      -0.20960560
6
Properties=species:S:1:pos:R:3:forces:R:3 charge=-1.0 dipole_moment="2.124842295981731 -1.5820123133853425 -0.7772343197877474" energy=-13.007533539908026 pbc="F F F"
C        1.20386300      -1.08345000      -1.41212800       3.73693932      -0.72434718       1.43954328
H        1.68429100      -1.68504000      -2.19760600      -0.08273296      -0.89638485       1.20147763
H        1.64281400      -0.16717100      -1.55923400       0.23088354       2.45956529      -0.55028965
H        0.20200700      -1.07635900      -1.43869800      -3.49601716       0.01873563       0.12312757
Cl       1.73243600      -1.18324500       0.45642600      -0.42627762      -0.80688011      -2.12705786
Cl      -2.36492300       1.73790800       0.34759200       0.03691487      -0.05028204      -0.08542594
6
Properties=species:S:1:pos:R:3:forces:R:3 charge=-1.0 dipole_moment="-0.4506102701114277 0.7112194627699081 -0.35286065577607495" energy=-13.0248258769411 pbc="F F F"
C       -0.27286000       0.09099800      -0.07069600       1.17458491       1.58822351      -0.70719380
H        0.76405600       0.43888600       0.05002100      -1.06797360      -0.55736893       1.10746420
H       -0.18392700      -0.48420700      -0.99740500      -1.13404890      -0.45029584       1.05041245
H       -1.04428700       0.11170500       0.73911400       1.51610714      -1.29400187      -0.90115681
Cl       0.95558200      -1.75328300       0.82562800       0.67981464      -1.57922207       0.75709121
Cl      -0.83197500       1.71726100      -0.78842500      -1.16846672       2.29277062      -1.30662598
6
Properties=species:S:1:pos:R:3:forces:R:3 charge=-1.0 dipole_moment="-1.9485553751177562 5.421109366026741 -0.1719111545098223" energy=-12.515186890381223 pbc="F F F"
C       -0.52563200      -0.47135000      -1.11697200       2.48528867      -0.32868780      -0.96834797
H       -1.19913100      -0.21683800      -1.88235700      -2.17281682      -0.11379909       0.00672652
H       -0.58087300      -1.37503700      -0.49702200      -0.24617286       0.17076034      -1.05117452
H        0.35409300      -0.39184400      -1.80371300       0.04107646      -0.86751135       1.27315742
I       -0.24576300       1.07706700       0.22130000      -0.07868193       1.10237702       0.75464763
F        1.95612600      -5.80808300      -0.09377800      -0.02862769       0.03680226      -0.01481881
6
Properties=species:S:1:pos:R:3:forces:R:3 charge=-1.0 dipole_moment="-1.1425676824168118 -0.1392371076435579 0.7733660343785256" energy=-13.124359388946763 pbc="F F F"
C        0.25425700       0.32081100      -0.50082300       1.29589934      -2.64080288       0.44192279
H        0.19905300      -0.60683200      -1.14954500       0.25539181       1.22630471       1.43152504
H        1.22896300       0.42783100       0.10170500      -2.41492425      -0.06576985      -1.03303282
H       -0.14672500       1.12222700      -1.08149400      -0.19788651       0.77822465       0.48322293
Cl       2.39044400       0.43968500      -1.84962800       0.71659324       0.19610628      -0.72665346
Br      -1.24126800      -0.29550700       1.04508400       0.34474999       0.50547018      -0.59668161
6
Properties=species:S:1:pos:R:3:forces:R:3 charge=-1.0 dipole_moment="1.0232757930166159 0.3537629029200863 -1.4607497680530066" energy=-13.046755527986567 pbc="F F F"
C        0.35150100      -0.19238200      -0.57080000      -0.13274350       0.27686001       2.20220762
H       -0.66142800      -0.16270200      -0.91636400      -0.33010190      -0.70708788      -0.30211853
H        0.78186600      -1.17659900      -0.30305000      -0.65010708       0.67228748      -0.38278690
H        0.28744200       0.44141700       0.36061000       0.64633630      -0.59989292      -1.14436931
I        1.50324100       0.66784700      -2.09588100       0.61643231       0.41663033      -0.56766980
I       -1.55072900      -0.62912700       2.17670400      -0.14958885      -0.05868749       0.19447723
6
Properties=species:S:1:pos:R:3:forces:R:3 charge=-1.0 dipole_moment="0.15270466765240764 -0.9551119473466768 -3.3808073628502684" energy=-14.940186401727605 pbc="F F F"
C       -0.07365500      -0.70769300      -2.07306300       0.38667595       2.06854572      -1.85153329
H        0.75930700      -1.00727500      -2.68702800       0.55295794      -0.38970573      -0.01520551
H       -0.71297200      -0.11415300      -2.80180000       0.43644119      -0.26134906       1.38140807
H       -0.58285200      -1.51307000      -1.69837000      -1.43585941      -2.15533177       0.53110922
F        0.37548300      -0.01965900      -0.98944000       0.07995206       0.74392150      -0.09042879
F       -0.26676700       0.78417600       3.17006000      -0.02040582      -0.00495812       0.04472074
6
Properties=species:S:1:pos:R:3:forces:R:3 charge=-1.0 dipole_moment="0.0685654911727569 0.061749688700694624 -0.5157043587828858" energy=-13.536570762180892 pbc="F F F"
C        0.10794700       0.14755700      -1.00916600       1.16434215      -4.00868180      -1.00032016
H        0.83229700       0.82173900      -0.67528100       0.79140412       0.64868475       0.66742861
H       -0.88755800       0.47483200      -0.88761200      -0.77057819       0.05446420      -0.08602603
H        0.32513000      -0.98884500      -0.70805700      -0.71996499       3.18616218      -0.75195466
Cl       0.49600700       0.13920600      -2.89917100      -0.27277607       0.11371476      -0.01062740
Br      -0.26713300      -0.10170200       1.64605300      -0.19221466       0.00548982       1.18023568
6
Properties=species:S:1:pos:R:3:forces:R:3 charge=-1.0 dipole_moment="-0.5943787222090436 -0.15631101034240022 0.4685324438788039" energy=-13.409248439280766 pbc="F F F"
C       -1.62419800      -0.50994700       1.24313200       1.79724598      -1.92947269       4.08579125
H       -2.08539500      -1.42724200       1.77530200       0.76028709       1.27628799      -1.42071047
H       -0.45821600      -0.50752300       1.54539600      -2.92189030       0.70124119      -0.30140479
H       -1.55007200      -0.54819500       0.20531900      -0.63872378       0.15403429      -1.66277779
Cl      -2.65493700       0.83746800       1.90818600       0.69300748      -0.17819340      -0.46256823
I        1.11269400      -0.16404400      -0.81932000       0.30909702      -0.02317593      -0.23734215
6
Properties=species:S:1:pos:R:3:forces:R:3 charge=-1.0 dipole_moment="2.0586422269401945 0.8136893378234903 -0.8825723353225856" energy=-13.022390431607308 pbc="F F F"
C        1.89986500       0.22819100      -1.40194700       1.09919399       0.30844550       3.72618748
H        1.66596200      -0.82530600      -1.10941700       0.83432201       0.83110607      -0.89618481
H        3.03120200       0.59855000      -1.28458200      -2.78053155      -1.18488475      -0.67304492
H        1.34995200       0.55282400      -2.25691600      -0.03988090       0.32265547      -0.42137504
Cl       1.03525100       0.98031600       0.16906800       0.90260537      -0.19572010      -1.68378113
Cl      -2.06150400      -1.08003500       0.59932000      -0.01667669      -0.08159808      -0.05085437
6
Properties=species:S:1:pos:R:3:forces:R:3 charge=-1.0 dipole_moment="1.861910015368875 -1.6781267701400528 -0.8377721926762507" energy=-13.697073898598788 pbc="F F F"
C        0.37518200      -1.10170700      -1.11524300      -0.54812941       0.70251851      -0.79887421
H        0.73797400      -2.11419100      -1.11744300       0.13207552      -0.35066713       0.00562095
H        0.76068700      -0.56224100      -2.00571000      -0.36522266      -0.41782641       0.58338901
H       -0.72825000      -1.08423200      -1.11031200       0.61144900       0.17191940       0.08652483
Cl       0.96748500      -0.26747000       0.31865300       0.16024967       0.01663812       0.24267050
F       -2.16319400       1.65754400       0.61198100       0.00920866      -0.12205953      -0.11885697
6
Properties=species:S:1:pos:R:3:forces:R:3 charge=-1.0 dipole_moment="-0.214443772808891 -2.2412242399010363 3.5204678122622775" energy=-12.986682342008724 pbc="F F F"
C       -0.79387000      -1.44491400       0.31248300      -1.31691040       0.91122731       1.82553789
H       -0.50079600      -1.06290700      -0.66347500       0.59995565      -0.48369447       0.30664778
H       -1.85355500      -1.17378400       0.48405500       0.69840629       0.29467930      -0.05667277
H       -0.75004000      -2.45861500       0.66091400       0.49179448      -0.66160403      -1.14002209
Br       0.24329000      -0.65272800       1.86439800      -0.44821016       0.01633679      -0.98128165
Cl      -0.03809100       2.13001600      -3.97707800      -0.02491399      -0.07641525       0.04610811
6
Properties=species:S:1:pos:R:3:forces:R:3 charge=-1.0 dipole_moment="-0.051885825495784625 0.6343458893912989 1.246651547962614" energy=-14.695759606470522 pbc="F F F"
C       -0.07060700       1.46604500       2.59389600      -1.02845265      -1.01560948      -1.97913200
H       -0.49479200       1.96258900       3.47763600       0.22042840      -0.25340486      -0.17558219
H        0.94934900       1.02770000       2.77912600      -1.68075135      -0.49581980       0.16621875
H       -0.98688300       0.72800600       2.06509600       3.33021956       2.02068309       1.51596368
F        0.29343100       2.48178500       1.67757900      -0.80486848      -0.23823175       0.38590102
Br      -0.04814000      -0.99573200      -1.11381300      -0.03728511      -0.01834688       0.08615356
6
Properties=species:S:1:pos:R:3:forces:R:3 charge=-1.0 dipole_moment="-0.2598630527915855 -0.07875056494447916 -1.468100568684949" energy=-12.906060014933923 pbc="F F F"
C       -0.33329800      -0.36815600      -3.57499300       2.93564107      -3.20408586       0.05486889
H       -0.78690900      -1.35406200      -3.28864500       1.46639229       0.15520774      -1.06652967
H        0.86073300      -0.32299100      -3.35756700      -3.02797454      -0.29805104      -0.85692407
H       -0.62838100      -0.14375900      -4.58130500       0.32999289       0.24319758      -0.54829859
Cl      -1.15053700       0.54026700      -2.46349600      -1.73951751       3.13236236       2.40139716
I        0.41723500      -0.09726000       1.40673400       0.03577742      -0.02749641       0.01472060
6
Properties=species:S:1:pos:R:3:forces:R:3 charge=-1.0 dipole_moment="0.29031720125953453 -0.160441238470851 0.8572088716202607" energy=-14.806798691642541 pbc="F F F"
C        0.28528700      -0.12850300       0.87055500      -1.22874675       0.00531910       0.44633172
H       -0.69371600       0.30570700       1.26137000       1.05298664      -0.41099447      -1.81332823
H        0.92101000       0.65494700       0.29566400      -0.89268400      -1.85259258       1.55336860
H        0.23058400      -1.16188100       0.47714100      -0.47274672       1.53926147      -1.24586875
F        0.74377100      -0.57949300       2.12784100       2.02352827       0.42360573       2.25172861
Cl      -0.52138500       0.36398100      -1.55341600      -0.48271591       0.29575916      -1.19269628
6
Properties=species:S:1:pos:R:3:forces:R:3 charge=-1.0 dipole_moment="2.3981517416937437 4.9058325824299915 1.926818892016636" energy=-13.276920656667864 pbc="F F F"
C        0.00686800       0.32330900      -0.76076800       0.53353943       0.32015225      -0.81718663
H        0.43640400      -0.67671100      -0.75625200      -0.37611283       0.08804949       0.16822678
H        0.38035100       0.84763000      -1.66077800      -0.22909251      -0.17291184       0.67442355
H       -1.07744800       0.34875800      -0.74989100       0.13033900      -0.22606735       0.13887146
Br       0.66835600       1.26275500       0.81478200      -0.07593342      -0.04615336      -0.16644449
F       -2.57477400      -5.18399600      -2.30954000       0.01702482       0.03630964       0.00149433
6
Properties=species:S:1:pos:R:3:forces:R:3 charge=-1.0 dipole_moment="-0.5866199259477566 3.09725357551895 -2.264723412290545" energy=-12.3165137650747 pbc="F F F"
C       -0.50936000       1.57865900      -2.84516500       1.23956749      -3.63757337       1.25282307
H       -1.41656200       0.99847800      -2.66487500       0.26794137      -0.10876281       0.88822931
H        0.43691400       1.00266900      -2.42673200      -2.22076275       0.78256159      -1.58753548
H       -0.60923500       1.61761000      -3.89852800       0.96913781       1.09780148      -1.11480419
I       -0.49995800       3.21100600      -1.64777400      -0.25479480       1.86201362       0.57994939
I        0.58760100      -3.45800000       2.13949300      -0.00104490       0.00340825      -0.01897474
6
Properties=species:S:1:pos:R:3:forces:R:3 charge=-1.0 dipole_moment="-2.190981509644052 -1.9346861696060884 0.9685641612164203" energy=-13.160048989638886 pbc="F F F"
C       -3.06220200      -2.88362400       0.34739000       0.10177815       0.20306626      -0.37796505
H       -2.68526000      -3.89486000       0.36526400       0.02427327      -0.15760966       0.10183575
H       -2.66288000      -2.37051300      -0.53331500      -0.21306425      -0.04817631       0.34837988
H       -4.14945500      -2.87702400       0.36158000       0.16177588       0.06397162      -0.01442646
Br      -2.41483200      -1.96787800       1.92702700      -0.07283782      -0.05698748      -0.04189407
I        2.12056500       1.79848800      -1.31554400      -0.00230731      -0.00493035      -0.01676514
6
Properties=species:S:1:pos:R:3:forces:R:3 charge=-1.0 dipole_moment="-0.08910867966405578 -0.02783948387055312 -3.0341063298051565" energy=-13.570656856404332 pbc="F F F"
C       -0.07589000       0.05644300       1.26748900       0.12974096       0.19281630       1.05419403
H       -0.10052000       1.12080500       1.59439900       0.12950390      -1.07509144      -0.42797712
H        0.81668700      -0.46867100       1.64456400      -0.53934035       0.53440537      -0.26297142
H       -0.96591100      -0.47352200       1.63484000       0.40690693       0.32711222      -0.44193513
F        0.09217700       0.04665600       4.15483100      -0.02653996      -0.00836020      -0.43564467
I       -0.00234900      -0.01768300      -0.94098500      -0.10038307       0.02889663       0.51461508
5
Properties=species:S:1:pos:R:3:forces:R:3 charge=0.0 dipole_moment="0.2577304686330132 -0.28216258044474574 -0.046773973641737916" energy=-13.195994469434037 pbc="F F F"
C        0.68316200      -0.85399200      -0.13393100      -0.64116376       1.05458226      -4.53383892
H        0.48300900      -1.75810000       0.33151300      -1.20738911      -1.56537360       0.61570932
H        1.55387300      -0.50314000       0.24749800       2.92742023       0.78946346       0.84711942
H        0.74400300      -0.86762500      -1.30075600       0.25303154      -0.84693122       2.33990357
Cl      -0.40469800       0.48546000       0.08972500      -1.33312583       0.56936570       0.73127887
6
Properties=species:S:1:pos:R:3:forces:R:3 charge=-1.0 dipole_moment="-1.5836098993840348 1.6089400249220942 1.3873804061627513" energy=-12.997155601060074 pbc="F F F"
C       -1.55887900       0.22505100      -0.40923800      -1.30455265       0.17299412      -0.91021070
H       -0.76746200      -0.24042100      -1.01448900       0.06011240       0.24644488       0.55616514
H       -2.24206700       0.85060300      -1.03985400       1.13933971       0.10790818       0.59157591
H       -2.27089500      -0.50780600      -0.04329000       0.47838155      -0.36399316       0.40333361
I       -0.81893900       1.30639900       1.30945500      -0.20117238      -0.26110326      -0.65952041
Br       1.65821300      -2.01976600      -1.85280100      -0.17192762       0.09799349       0.01925242
6
Properties=species:S:1:pos:R:3:forces:R:3 charge=-1.0 dipole_moment="-1.0770285557112695 -0.0014023196079941715 -0.5604272415564782" energy=-15.187637260370538 pbc="F F F"
C       -3.37023300       0.35359500      -2.24275000      -1.54804128       2.25333246       1.09839695
H       -3.47894100       1.02825900      -1.28219200       0.94780177      -1.36972343      -1.91479940
H       -2.48086600      -0.23184400      -2.34347100       0.28486900      -0.44715447       0.67227308
H       -4.32368100      -0.18471200      -2.26498700       0.49138362      -0.43958720      -0.16756189
F       -3.37007900       1.18776300      -3.37748500      -0.12951522       0.01269817       0.33273831
I        1.14784200      -0.25326700       0.93857600      -0.04651743      -0.00927294      -0.02125891
6
Properties=species:S:1:pos:R:3:forces:R:3 charge=-1.0 dipole_moment="-0.004799637299814039 -1.0933012841133185 0.7041337799204582" energy=-15.43635545911494 pbc="F F F"
C       -0.17777000      -0.96452900       0.13538000      -3.11440115      -0.91476772       0.92808346
H        0.39289500      -0.97263400      -0.77181300       0.38209938       0.08837036      -0.09223370
H       -1.13698600      -0.42816900      -0.06325000       0.96763629      -0.58758505      -0.39315050
H       -0.47934900      -2.04521400       0.54231400       1.09698850       1.86904507      -0.57809408
F        0.39802400      -0.21569500       1.13389200       0.74022580      -0.57126368       0.44046703
F       -0.14357300       1.24160500      -1.19161700      -0.07215647       0.11623136      -0.30443406
6
Properties=species:S:1:pos:R:3:forces:R:3 charge=-1.0 dipole_moment="-2.0979759690014044 -1.7087343799990657 2.168403105600925" energy=-12.644617764810551 pbc="F F F"
C       -1.72402000      -1.96422200       0.03532400       2.09358313      -0.85684333       0.77902066
H       -0.97074100      -1.77134200      -0.70220700       0.75835568      -0.15649175      -0.12374720
H       -2.59473700      -1.76627300      -0.48739900      -2.21376524       0.86738434      -0.07049297
H       -1.69349200      -3.00813800       0.37341000       0.02436018       0.51950532      -0.07768383
I       -1.11134600      -0.70844800       1.69384700      -0.63013938      -0.33040889      -0.50307802
Br       2.12869800       1.59653800      -2.54770300      -0.03221850      -0.04248234      -0.00349464
6
Properties=species:S:1:pos:R:3:forces:R:3 charge=-1.0 dipole_moment="0.15048053583640783 0.03324608743088388 -0.7955681934249422" energy=-12.706634457128517 pbc="F F F"
C        0.10128800       0.43171500       0.40940500      -1.18711081       0.88120814      -0.58901870
H        0.43072100      -0.53584500       0.79575600      -0.34346444       0.95232640      -0.62805833
H       -0.95773800       0.79620800       0.35869000       1.23356757      -1.37411128       0.03704857
H        0.72171600       1.33605700       0.36633500       0.31229033      -0.98629222       0.26351187
Br      -0.41183700       0.33405300       2.87395300      -0.08326415       0.32314347       0.95067318
I        0.25682800      -0.29959600      -1.97293500       0.06785553       0.20374606      -0.03356113
6
Properties=species:S:1:pos:R:3:forces:R:3 charge=-1.0 dipole_moment="1.6929648991242632 -1.2301623860814446 -2.8819784653122635" energy=-12.83448733262255 pbc="F F F"
C        0.94687200      -1.61134600      -3.39349000      -2.35760870       2.84717661       1.21459488
H        1.56389500      -2.40425100      -3.54360800       1.52621466      -2.36732644      -0.17495793
H        0.87567700      -1.01807800      -4.32436400       0.28717322       0.18745246       0.93007504
H       -0.07515700      -1.84515700      -3.03419100       0.83550369      -0.23517317      -0.50325337
Br       1.66229100      -0.63338300      -1.74938600      -0.28068941      -0.43031837      -1.46925753
Br      -1.89216600       1.06011400       2.64261700      -0.01026539      -0.00151952       0.00329204
6
Properties=species:S:1:pos:R:3:forces:R:3 charge=-1.0 dipole_moment="0.0 0.0 -3.7619583614802963" energy=-13.705179840476765 pbc="F F F"
C       -0.00000000      -0.00000000      -7.43420200       0.00000000       0.00001800       0.00905440
H        0.00000000       1.02776600      -7.09123000      -0.00000000       0.00187382       0.00091840
H       -0.89007100      -0.51388200      -7.09122700      -0.00162751      -0.00094000       0.00092097
H        0.89007100      -0.51388200      -7.09122700       0.00162751      -0.00094000       0.00092097
Cl      -0.00000000      -0.00000000      -9.21817700       0.00000000      -0.00001491      -0.00694661
I       -0.00000000      -0.00000000       4.19977200       0.00000000       0.00000051      -0.00649101
6
Properties=species:S:1:pos:R:3:forces:R:3 charge=-1.0 dipole_moment="0.0 0.0 5.6292585759159754" energy=-13.014139440255866 pbc="F F F"
C        0.00000000      -0.00000000      -0.90804400      -0.00000051       0.00001646      -0.16556054
H       -0.00000000       1.02978200      -1.23909000       0.00000000       0.00064535      -0.00010747
H       -0.89181700      -0.51489000      -1.23909200      -0.00055742      -0.00032242      -0.00010799
H        0.89181700      -0.51489000      -1.23909200       0.00055793      -0.00032242      -0.00010799
F        0.00000000      -0.00000000      -6.19018600      -0.00000000       0.00001697       0.08345544
I        0.00000000      -0.00000000       1.22409800       0.00000000      -0.00000617       0.08326878
6
Properties=species:S:1:pos:R:3:forces:R:3 charge=-1.0 dipole_moment="0.0 0.0 9.503893582487208" energy=-12.875280713716533 pbc="F F F"
C       -0.00000000      -0.00000000       0.91267600       0.00000206       0.00001954      -0.01736883
H        0.00000000       1.03147500       0.58451800      -0.00000000      -0.00268577       0.00095234
H       -0.89328300      -0.51573600       0.58451600       0.00232891       0.00134417       0.00095234
H        0.89328300      -0.51573600       0.58451600      -0.00232788       0.00134366       0.00095285
Cl      -0.00000000      -0.00000000      -9.92018600      -0.00000000      -0.00000000       0.00773079
I       -0.00000000      -0.00000000       3.04553900       0.00000000      -0.00000617       0.00757036
6
Properties=species:S:1:pos:R:3:forces:R:3 charge=-1.0 dipole_moment="0.0 0.0 -0.7290908355250703" energy=-14.033508044547007 pbc="F F F"
C        0.00000000      -0.00000000      -1.95015000       0.00000051       0.00001594      -0.14622173
H       -0.00000000       1.02600900      -1.61266400       0.00000000       0.00098113       0.00058467
H       -0.88855000      -0.51300400      -1.61266200      -0.00084949      -0.00049057       0.00058364
H        0.88855000      -0.51300400      -1.61266200       0.00084898      -0.00049005       0.00058364
Cl       0.00000000      -0.00000000      -3.77235600       0.00000051      -0.00001183       0.07167722
I        0.00000000      -0.00000000       1.52205500       0.00000051      -0.00000771       0.07202740
6
Properties=species:S:1:pos:R:3:forces:R:3 charge=-1.0 dipole_moment="-0.0 0.0 -1.070311709377583" energy=-15.465222737734045 pbc="F F F"
C       -0.00000000       0.00000000      -3.97534800       0.00000051      -0.00000309       0.12234390
H        0.00000000       1.02763000      -3.62356100       0.00000000       0.00189336       0.00102381
H       -0.88995400      -0.51381600      -3.62356200      -0.00164139      -0.00094822       0.00102433
H        0.88995400      -0.51381600      -3.62356200       0.00164139      -0.00094822       0.00102433
F       -0.00000000       0.00000000      -5.36726600      -0.00000000       0.00003291      -0.06321006
I       -0.00000000       0.00000000       1.56656900      -0.00000051       0.00000206      -0.06216774
6
Properties=species:S:1:pos:R:3:forces:R:3 charge=-1.0 dipole_moment="0.0 0.0 1.529997897827391" energy=-13.206455795020506 pbc="F F F"
C        0.00000000       0.00000000      -0.26548200      -0.00000051       0.00002211       0.75253058
H        0.00000000       1.05035700      -0.48620300      -0.00000000       0.00208568      -0.00051833
H       -0.90963500      -0.52517800      -0.48620200      -0.00180749      -0.00104335      -0.00051011
H        0.90963500      -0.52517800      -0.48620200       0.00180800      -0.00104335      -0.00051011
Br       0.00000000       0.00000000      -3.05792500      -0.00000000       0.00000360      -0.37503965
I        0.00000000       0.00000000       2.07696000       0.00000051      -0.00000874      -0.37568191
6
Properties=species:S:1:pos:R:3:forces:R:3 charge=-1.0 dipole_moment="0.0 0.0 -1.5520566498497448" energy=-15.397693816276323 pbc="F F F"
C        0.00000000       0.00000000      -5.24265700      -0.00000000      -0.00000309       0.04769962
H        0.00000000       1.02861900      -4.89225000       0.00000000       0.00183063       0.00101456
H       -0.89081100      -0.51431000      -4.89225100      -0.00158380      -0.00091428       0.00101404
H        0.89081100      -0.51431000      -4.89225100       0.00158431      -0.00091428       0.00101404
F        0.00000000       0.00000000      -6.63191700      -0.00000000       0.00003085      -0.02579691
I        0.00000000       0.00000000       1.99660300       0.00000051      -0.00000000      -0.02465894
6
Properties=species:S:1:pos:R:3:forces:R:3 charge=-1.0 dipole_moment="0.0 0.0 -1.711707297568013" energy=-15.384566219072838 pbc="F F F"
C        0.00000000       0.00000000      -5.69012700       0.00000000      -0.00000257       0.03698789
H        0.00000000       1.02877900      -5.33984900      -0.00000000       0.00183165       0.00101713
H       -0.89094900      -0.51439000      -5.33985000      -0.00158483      -0.00091428       0.00101661
H        0.89094900      -0.51439000      -5.33985000       0.00158483      -0.00091428       0.00101661
F        0.00000000       0.00000000      -7.07872300       0.00000051       0.00002982      -0.02043462
I        0.00000000       0.00000000       2.14846800      -0.00000051       0.00000051      -0.01927710
6
Properties=species:S:1:pos:R:3:forces:R:3 charge=-1.0 dipole_moment="0.0 0.0 11.67969776055508" energy=-12.867318995451635 pbc="F F F"
C        0.00000000      -0.00000000      -0.05289700      -0.00000103       0.00001954      -0.01178902
H       -0.00000000       1.03146400      -0.38109900       0.00000000      -0.00132206       0.00065100
H       -0.89327400      -0.51573100      -0.38110100       0.00114568       0.00066077       0.00065100
H        0.89327400      -0.51573100      -0.38110100      -0.00114517       0.00066077       0.00065100
F        0.00000000      -0.00000000     -12.08563000      -0.00000000       0.00000051       0.00562609
I        0.00000000      -0.00000000       2.07983700       0.00000000      -0.00000566       0.00498434
6
Properties=species:S:1:pos:R:3:forces:R:3 charge=-1.0 dipole_moment="-0.0 0.0 -1.0612754793299948" energy=-15.741814766631926 pbc="F F F"
C        0.00000000      -0.00000000      -1.06298200      -0.00000000       0.00003548      -0.73362320
H       -0.00000000       1.02736700      -0.72921300       0.00000000      -0.00232788       0.00308327
H       -0.88972600      -0.51368200      -0.72921000       0.00201523       0.00116368       0.00308070
H        0.88972600      -0.51368200      -0.72921000      -0.00201523       0.00116368       0.00308070
F        0.00000000      -0.00000000      -2.50711600      -0.00000000       0.00000206       0.36241244
Cl       0.00000000      -0.00000000       1.83115100       0.00000000       0.00002674       0.36112535
6
Properties=species:S:1:pos:R:3:forces:R:3 charge=-1.0 dipole_moment="0.0 0.0 -2.629301639040135" energy=-13.799462204132048 pbc="F F F"
C       -0.00000000      -0.00000000      -3.09755100       0.00000000       0.00001028       0.08759595
H        0.00000000       1.02684600      -2.75362900      -0.00000000       0.00196227       0.00090194
H       -0.88927500      -0.51342300      -2.75362600      -0.00169950      -0.00098113       0.00090194
H        0.88927400      -0.51342300      -2.75362600       0.00169950      -0.00098113       0.00090194
Cl      -0.00000000      -0.00000000      -4.88470800      -0.00000051      -0.00001594      -0.04605103
Br      -0.00000000      -0.00000000       3.13960600      -0.00000000       0.00000257      -0.04580832
6
Properties=species:S:1:pos:R:3:forces:R:3 charge=-1.0 dipole_moment="-0.0 0.0 -0.9278646127747446" energy=-15.658145518352223 pbc="F F F"
C       -0.00000000      -0.00000000      -2.35714200       0.00000000       0.00002005       0.29748849
H        0.00000000       1.02471200      -2.00052800       0.00000000       0.00234228       0.00111894
H       -0.88742700      -0.51235600      -2.00052900      -0.00202809      -0.00117139       0.00111894
H        0.88742700      -0.51235600      -2.00052900       0.00202809      -0.00117088       0.00111894
F       -0.00000000      -0.00000000      -3.75555300       0.00000000       0.00003394      -0.15041366
Br      -0.00000000      -0.00000000       1.54126900       0.00000051      -0.00001286      -0.14959194
6
Properties=species:S:1:pos:R:3:forces:R:3 charge=-1.0 dipole_moment="0.0 0.0 -4.810898190854838" energy=-15.360103514986854 pbc="F F F"
C        0.00000000       0.00000000      -4.30566600       0.00000051       0.00000103       0.02026441
H        0.00000000       1.02904500      -3.95550500       0.00000000       0.00185634       0.00102947
H       -0.89117900      -0.51452300      -3.95550500      -0.00160745      -0.00092817       0.00102947
H        0.89117900      -0.51452300      -3.95550500       0.00160745      -0.00092765       0.00102947
F        0.00000000       0.00000000      -5.69289600      -0.00000000       0.00002982      -0.01211401
Cl       0.00000000       0.00000000       5.23156300      -0.00000051      -0.00000000      -0.01094776
6
Properties=species:S:1:pos:R:3:forces:R:3 charge=-1.0 dipole_moment="0.0 0.0 -2.4889162168496535" energy=-13.814676204753495 pbc="F F F"
C       -0.00000000      -0.00000000      -2.92548700       0.00000051       0.00000977       0.10799200
H        0.00000000       1.02662200      -2.58112100      -0.00000000       0.00199878       0.00090760
H       -0.88908000      -0.51331000      -2.58111900      -0.00173138      -0.00099964       0.00090709
H        0.88908000      -0.51331100      -2.58111900       0.00173087      -0.00099913       0.00090657
Cl      -0.00000000      -0.00000000      -4.71279900       0.00000000      -0.00001388      -0.05629225
Br      -0.00000000      -0.00000000       3.01182500      -0.00000051       0.00000051      -0.05611330
6
Properties=species:S:1:pos:R:3:forces:R:3 charge=-1.0 dipole_moment="2.6952651658685496 -0.5969917992748079 -2.0645155648002422" energy=-11.814211557066937 pbc="F F F"
C        1.10442700      -1.32495800      -1.33517300      -7.55839389      -0.02844823      -0.75700070
H        0.55066800      -2.15933200      -0.88470800       1.16239326      -0.36053091      -0.16789356
H        1.97093000      -1.54808100      -1.78605300       3.50823556      -0.05606239      -0.93605286
H        0.25962700      -1.04042200      -2.10380900       2.35305065      -1.12376706       0.30656242
I        0.32705100       0.16258900      -0.11782700       0.34648394       1.53418766       1.67223431
F       -2.97127800       0.45337200       2.11449600       0.18799136       0.03463071      -0.11842296
6
Properties=species:S:1:pos:R:3:forces:R:3 charge=-1.0 dipole_moment="-0.08916741833442836 1.0442730155545783 0.7881575957682062" energy=-12.896018712577808 pbc="F F F"
C       -1.11026700       1.34284700       1.16625200       2.41676928      -2.37495028      -0.71810968
H       -1.23411400       0.89346000       2.13720700      -1.29859900       0.80839603       0.26705948
H       -0.95619800       0.46256400       0.53086300       0.35819789      -0.16048981       0.10716719
H       -1.74268000       1.87236700       0.50199700      -0.85752056       1.48229611       0.66500148
Br       0.74505700       2.02104600       1.33634600      -0.58194662       0.37462570      -0.22690039
I       -0.29212100      -1.54758700      -1.07433300      -0.03710256      -0.13010400      -0.09453998
6
Properties=species:S:1:pos:R:3:forces:R:3 charge=-1.0 dipole_moment="0.08194626611907418 -0.2895906409494304 0.3328090729133899" energy=-13.63653927564313 pbc="F F F"
C        0.08694900      -1.55082400       1.28947800      -7.94342073      -0.23084549      -6.48081002
H        0.63579100      -1.25451700       2.00692800       3.77789442       2.03114645       5.58253953
H       -1.04206500      -0.90402200       1.14729800       3.86969721      -1.88519726       0.94907087
H        0.55682200      -1.45976300       0.32790200       0.22150570       0.02705006       0.21777760
F       -0.30060800      -2.85490600       1.36553300      -0.06295552      -2.30990137       1.18741678
I        0.03836300       0.72863000      -0.44356200       0.13678064       2.36712847      -1.45576438
6
Properties=species:S:1:pos:R:3:forces:R:3 charge=-1.0 dipole_moment="-0.47784437525309575 -0.07061340697763896 0.335973023455351" energy=-15.32513926578605 pbc="F F F"
C       -1.70501400       0.00419600       1.80847800      -0.51510770      -0.57415566      -1.73943164
H       -1.33991700      -1.03850200       1.81053900      -0.08613196       0.59204128      -0.12533975
H       -1.33701800       0.52739500       0.89507700      -0.29566094      -0.62785367       0.90559505
H       -2.80486500      -0.00079000       1.81172600       0.12935889       0.01430665       0.15435208
F       -1.25149300       0.64066200       2.91503100       0.34732418       0.66916153       1.32857755
I        0.50896800      -0.09960800      -0.78497200       0.42054098      -0.07272057      -0.52239009
6
Properties=species:S:1:pos:R:3:forces:R:3 charge=-1.0 dipole_moment="-1.1601628246680598 0.9850633774645903 0.08369466762277711" energy=-14.100458054025507 pbc="F F F"
C       -1.14154500       1.21613700       0.32735500       2.99295817      -6.50221548      -2.19062120
H       -1.02156400       0.03848800       0.06392200      -0.81373519       1.68508674       0.78131666
H       -1.43522800       1.03112600       1.38348600       0.01273570       1.60092116      -0.79980083
H       -0.01681800       1.12424700      -0.06584000      -2.01247870       1.99831501       1.34667503
F       -2.06266200       1.61662900      -0.63610700      -0.02785790       1.03600758       0.85535518
Cl       1.64040200      -1.41413800       0.13995700      -0.15150124       0.18091466       0.00688439
6
Properties=species:S:1:pos:R:3:forces:R:3 charge=-1.0 dipole_moment="1.9096259244454166 0.15712329736061573 0.3423088621974319" energy=-12.935892963668309 pbc="F F F"
C        2.93462500      -0.00900400      -0.01697200       0.51782639       4.27516895      -5.03569978
H        3.10161700      -1.00078700      -0.29828500      -0.31974036      -1.60790273       0.13983563
H        3.85245600       0.56461600      -0.09252500       0.79552869      -0.63161416      -0.35277903
H        2.33814000       0.61981600      -0.83623500       0.69473681      -2.14309898       1.48334614
Cl       2.37639700       0.46799400       1.45244700      -1.74044928       0.10758011       3.80256673
Br      -1.92282000      -0.23101500      -0.66750600       0.05131408       0.00026997      -0.03661971
6
Properties=species:S:1:pos:R:3:forces:R:3 charge=-1.0 dipole_moment="-0.7336745685229742 -0.820066452387995 -1.1654101458880108" energy=-12.539132192919205 pbc="F F F"
C       -2.03575600      -1.62894900      -1.69559000      -1.34785157       2.29639279       1.03446595
H       -1.91132500      -2.73918100      -1.54246000      -0.67167813       1.49723370      -0.40854627
H       -2.65884600      -1.18781000      -2.56412400       1.43923270      -1.55341488       0.83526046
H       -2.55272900      -1.02829600      -0.82151700       1.12380202      -1.93981623      -1.20853119
Br      -0.22550400      -0.83736700      -1.65485600      -0.62712605      -0.50460114      -0.60893035
I        0.51377500       0.83088300       1.37776600       0.08318342       0.20382473       0.35661306
6
Properties=species:S:1:pos:R:3:forces:R:3 charge=-1.0 dipole_moment="5.32734974785904 -1.5249019212896613 -0.3504719498475897" energy=-12.165285486028132 pbc="F F F"
C        1.07643600       0.31172400       1.48936600      -1.99683816       0.68457169       1.75303483
H        0.19045900      -0.09682900       2.19480000       2.26241874      -0.40478834      -2.07674240
H        0.58420100       1.34001400       1.39225700       1.57865077      -1.12059483      -0.66222829
H        2.05351300       0.29430000       2.03242200      -1.11819650       0.26488947      -0.51461199
I        1.59005000      -0.61503500      -0.48922200      -0.74856491       0.57311848       1.48149701
Cl      -5.50349800       1.71700300       0.66900500       0.02260514       0.00295368       0.01913055
6
Properties=species:S:1:pos:R:3:forces:R:3 charge=-1.0 dipole_moment="-0.5035041781933365 -0.9244821120448207 0.15792500083461994" energy=-13.923699995821895 pbc="F F F"
C       -2.06488500      -3.16040800       0.57203600      -1.88358826      -7.29384021       1.67324270
H       -1.97692200      -4.26185700       0.27133600       2.50446396       0.85431800       1.81837017
H       -1.71601700      -2.67516100       1.40488700       0.53431950       0.22915113       2.70350438
H       -1.62720600      -2.75065100      -0.15450200       2.56557960       4.16392862      -6.33767824
F       -3.39343400      -3.30831100       0.47630800      -3.69322696       2.11274505       0.12776584
I        0.91038400       1.10235700      -0.17435300      -0.02930595      -0.06646508       0.01472162
6
Properties=species:S:1:pos:R:3:forces:R:3 charge=-1.0 dipole_moment="0.8777250720738208 2.0780312799352534 -1.646545474213603" energy=-11.239070075555555 pbc="F F F"
C        0.65765700       1.02596900      -0.63107700       3.51745297      -4.10983312       6.06886373
H        1.61815900       0.25701100      -0.35742500      -0.68408781       3.14450620      -0.48487770
H        0.45797800       0.20187500      -1.23085800      -3.21378972      -1.81061006       0.13428050
H        0.39450300       1.33291500       0.48819000      -0.58809361      -1.13936748      -3.01601376
Br       0.74753400       2.28734300      -1.85153400       0.90285528       3.83347294      -2.64389180
Br      -0.93086500      -2.51441700       1.99115000       0.06640543       0.08114351      -0.05760968
6
Properties=species:S:1:pos:R:3:forces:R:3 charge=-1.0 dipole_moment="-2.285371907046746 0.28259968082067144 -3.3934615774864816" energy=-11.964933155965593 pbc="F F F"
C        0.58267000      -0.75015400      -1.80700900       0.93700982       1.46385101      -0.79254055
H        1.35230000      -1.07790800      -1.13041600       0.05777989       0.30023185       0.63367362
H        0.75224700       0.32108700      -2.13618300       1.48806206      -2.29732867      -1.12140473
H        0.48034100      -1.58571700      -2.54266700      -0.94147223       1.27681301       0.40442427
I       -0.96326800       0.26178000      -0.77516700      -1.54472095      -0.72669974       0.94253924
Cl       2.64542900      -0.41358000       3.39618700       0.00250734      -0.01652345      -0.06634681
6
Properties=species:S:1:pos:R:3:forces:R:3 charge=-1.0 dipole_moment="2.8814334127853827 -2.429272653447003 1.5448534896595498" energy=-12.450114530238523 pbc="F F F"
C        1.29699100      -1.18867600       1.53744000      -3.53764230      -4.76588974      -9.07274291
H        0.68918200      -0.62710800       0.72020200       1.51970874       0.23444914       2.53326237
H        1.73295300      -1.10132700       2.38822400       2.24471361       2.26269436       5.38283730
H        0.75296100      -2.18448600       1.53808800      -0.00116214       1.46122334       0.72689617
Cl       2.70002800      -1.99205500       0.49734200      -0.25175524       0.83586262       0.40256177
Cl      -3.34456000       2.64176000      -1.31329200       0.02668960      -0.02872128       0.02648031
6
Properties=species:S:1:pos:R:3:forces:R:3 charge=-1.0 dipole_moment="-2.0259745302004566 0.24294155312938553 0.6227309787966333" energy=-12.71522268959739 pbc="F F F"
C       -0.50212500      -1.32870700      -0.91189500       3.22791433       1.17983922       2.48352438
H       -0.90864500      -2.18732700      -0.45640800      -1.43430389      -0.68999569       0.09035011
H        0.58596200      -1.36673300      -0.56915700      -0.91284505       0.01360731      -1.35201418
H       -0.55119600      -1.15492800      -1.96608500      -0.51601324       0.38413467      -0.19603686
I       -0.78875100       0.43589800       0.48191100      -0.54036519      -0.83524041      -1.02952018
Cl       2.68767300      -0.61302200      -1.00460400       0.17589741      -0.05231990       0.00352704
6
Properties=species:S:1:pos:R:3:forces:R:3 charge=-1.0 dipole_moment="-0.4787243969542634 0.2512782109046083 0.5868173090472971" energy=-13.158660686668187 pbc="F F F"
C       -1.36282400       0.71036000       1.36240000      -1.60030615      -1.55307961      -1.46617786
H       -0.80559400       1.38126200       0.78004100       0.92900495       0.15570191      -0.97949936
H       -2.36586500       1.13296900       1.29926300      -0.33694824       0.22368342       1.78708344
H       -1.49773500      -0.29284700       0.90476000       0.51244558       1.18306441      -0.15371341
Cl      -0.42007600       0.37776900       2.77321100      -0.07196930       0.29767412       1.69712105
I        0.37712100      -0.24350200      -1.10005700       0.56825087      -0.30735072      -0.88365891
6
Properties=species:S:1:pos:R:3:forces:R:3 charge=-1.0 dipole_moment="-0.04823767780615751 3.553571021846309 1.123709923341159" energy=-11.611082924719566 pbc="F F F"
C        0.69321000       1.71539700       1.86847000       6.05001034      -3.25203951      -3.21644567
H        0.29398000       2.18750600       2.65481000      -2.97203915       1.54371257       2.34822829
H        1.71175200       2.41219600       1.67950400      -2.71945293      -2.17764432      -0.12267711
H        1.04309400       0.62121000       2.16488500      -0.39345749       2.75314313      -0.04802358
I       -0.18972200       0.91209600      -0.02001500       0.04585871       1.05836847       1.03632640
Cl       0.16748200      -3.75613900      -0.97936600      -0.01077961       0.07426426       0.00227183
6
Properties=species:S:1:pos:R:3:forces:R:3 charge=-1.0 dipole_moment="-1.2650690315990778 0.42951885402998463 -0.3860951013083264" energy=-15.068347287746386 pbc="F F F"
C       -3.80490100       1.63570000      -0.87002000       0.19257976       3.07401220      -2.20985871
H       -2.98720100       1.11444400      -1.29115800       0.93819459      -0.29877507      -0.65066861
H       -4.24435000       2.43446300      -1.54112600       0.66594251      -1.16179110       0.04255587
H       -4.56148100       0.96403900      -0.70975300      -1.92082864      -1.66721397       1.27990708
F       -3.38355600       2.34368900       0.19931700       0.14958731       0.06611078       1.56950485
I        1.22782000      -0.66830800       0.13147700      -0.02563287      -0.01133188      -0.03131861
6
Properties=species:S:1:pos:R:3:forces:R:3 charge=-1.0 dipole_moment="-1.646032172319356 1.0701603646953617 3.30588645337864" energy=-12.039784867305038 pbc="F F F"
C       -1.74238600      -0.32463200       0.82343300       0.95651061      -2.46921773      -2.77272825
H       -1.77789900      -1.25756200       0.09822200       0.18656337       2.47448180       0.13068147
H       -2.57054200       0.42437700       0.47886000       1.61605107      -1.58441725       1.77481516
H       -1.54200300      -1.05434800       1.63171700      -1.48888636       1.76925592       1.04112562
Br       0.11634100       0.44966400       0.68234900      -1.23372492      -0.17129616      -0.19051824
F        1.36364700      -1.32254400      -3.44795500      -0.03411031      -0.01749276       0.01653939
6
Properties=species:S:1:pos:R:3:forces:R:3 charge=-1.0 dipole_moment="1.0583067951787315 1.9258293306328813 0.8558594697333228" energy=-15.270980594472645 pbc="F F F"
C        0.25987600       0.78679500       0.24768900      -0.67806475       1.24062216       1.86976138
H        0.25980500       1.29930000      -0.66375300      -1.40497789      -0.03990352      -1.71410884
H       -0.67241500       0.67018400       0.87130700       0.91927384       0.39632221      -1.15275522
H        0.78430000      -0.08434800       0.21221100       0.51150250      -2.97818049      -0.71625283
F        1.19350000       1.59603100       0.89729900       0.54201687       1.17533156       1.61307682
F       -1.40804900      -2.33002100      -1.10906500       0.11012447       0.20578031       0.10002723
6
Properties=species:S:1:pos:R:3:forces:R:3 charge=-1.0 dipole_moment="3.2542038319317115 -3.121704737710263 2.9052035239067" energy=-12.535019037449471 pbc="F F F"
C        0.50157400      -1.92963400      -0.52004100      -2.59375837       0.70739435       2.20378884
H        1.10773700      -1.55300500      -1.25536400       0.89216309       0.80221099      -2.04312162
H       -0.57111500      -1.63078400      -0.51628400       0.97684084      -0.42825634      -0.95997235
H        0.58541200      -2.98982800      -0.41140000       0.39313764      -0.41224300       0.68824889
I        1.02040200      -0.61570000       1.14539000       0.32723769      -0.64703976       0.11513915
Cl      -3.42428100       2.96373700      -3.25896400       0.00438219      -0.02204670      -0.00368439
6
Properties=species:S:1:pos:R:3:forces:R:3 charge=-1.0 dipole_moment="-1.6180969073736908 2.36003510721683 0.46379207442657294" energy=-13.401671366474337 pbc="F F F"
C       -1.50729700       1.52848000      -0.43913100      -0.04271117      -0.88654986      -3.01364321
H       -2.63426400       1.43817100      -0.42123200       1.39479940      -0.54064699       0.58964347
H       -0.97656100       0.67048700      -1.08898000      -1.38705832       1.69184154       1.94561819
H       -1.39210800       2.44517100      -1.05378300       0.41682419      -0.31661338       0.65831919
Cl      -0.73154700       1.71165800       1.13530600      -0.31482698      -0.01165841      -0.13283760
Cl       1.55782400      -2.51899400      -0.82949500      -0.06623676       0.06362555      -0.04585151
6
Properties=species:S:1:pos:R:3:forces:R:3 charge=-1.0 dipole_moment="-2.160254834912663 1.3101475214581693 -2.157921163414077" energy=-12.277271658729289 pbc="F F F"
C       -1.60201000       0.13248200      -1.08658500      -0.68260840       3.31691307      -0.00696101
H       -0.54140900       0.05603100      -1.12373800       0.18026314      -1.33855549       0.59390431
H       -2.43056500      -0.47340300      -1.15918400      -0.61107516      -3.10034955      -2.31286482
H       -2.12053500       0.48999700      -0.22980100       1.43831018       1.44123199       1.85810914
Br      -1.83584900       1.68719900      -2.31384700      -0.27362402      -0.33473400      -0.08479807
Br       2.25598000      -1.71198500       2.57191000      -0.05149149       0.01566882      -0.04804724
6
Properties=species:S:1:pos:R:3:forces:R:3 charge=-1.0 dipole_moment="0.8343208989089532 0.05501273363300636 -0.8116673517019259" energy=-13.409311043348099 pbc="F F F"
C        2.71640600      -0.10568600      -1.98976200      -3.75751226       0.96102444       5.70882492
H        2.21918000       1.04333400      -1.64489700       1.83033145      -3.49961465      -1.83679778
H        1.91984300      -0.76043300      -2.53078300       2.16584039       1.37768562       0.52925443
H        3.79125900      -0.24681300      -1.90289200      -0.19942969       0.37690421      -1.69975848
F        2.60033100      -0.70878000      -0.48833700       0.05332725       0.69939976      -2.61001289
I       -0.89871100       0.13164200       0.42287100      -0.09351823       0.08525007      -0.09124126
6
Properties=species:S:1:pos:R:3:forces:R:3 charge=-1.0 dipole_moment="-1.2076617710882702 -1.988134655404668 -0.47087246550391715" energy=-14.509572203131572 pbc="F F F"
C       -2.32482200      -3.94701200      -0.89198500      -3.14094573      -0.68833425       0.82024162
H       -3.31056500      -3.45186700      -1.08667100       0.84876338       0.39699841       0.28829679
H       -2.59006900      -4.49711000       0.16217600       1.71943154       0.99337303      -2.64658324
H       -2.18088400      -4.47626300      -1.81344100      -0.26578627      -1.87380007       0.22029573
F       -1.28950100      -3.10051500      -0.96609900       0.83440531       1.14451020       1.30663730
Br       0.96102700       1.82891300       0.47956400       0.00548982       0.02812376       0.01071533
6
Properties=species:S:1:pos:R:3:forces:R:3 charge=-1.0 dipole_moment="0.2639430090850327 0.14072938737734791 2.399421766999097" energy=-12.79705278538725 pbc="F F F"
C        0.43412600       0.49710000       3.99029400      -2.69658554      -2.19735183      -0.11678311
H        1.41501800       0.22098100       4.07573600       2.43702391      -0.62693681       1.40104615
H       -0.29565900      -0.26389900       4.52189100       1.64063493       2.81011724       0.27915343
H        0.41027200       1.58757200       3.99810900      -1.01242748      -0.33918150       0.19271345
Cl       0.15704600      -0.24011200       2.40459900      -0.36928912       0.35853162      -1.75019942
Br      -0.19440500      -0.01272400      -2.21187700       0.00037384      -0.00540240      -0.00662059
6
Properties=species:S:1:pos:R:3:forces:R:3 charge=-1.0 dipole_moment="-0.14926501578374265 -0.7343603821878649 1.7578526086836013" energy=-11.971253818953562 pbc="F F F"
C        0.52004500      -1.38336700       1.54686800       5.23915993       0.38453062      -2.66301516
H        1.28129700      -1.72683300       0.55650000      -1.73855746       0.67712064       3.25914141
H        0.12966100      -2.30001500       1.86261400      -1.67115085      -0.92641688       0.45898206
H        1.18327400      -0.94712200       2.34576900      -0.67550290      -0.60904759      -0.83771638
Br      -0.32801500       0.02973800       0.62464700      -1.31683018       0.10600402       0.77164520
Cl       0.33917800       0.71960800      -2.11227800       0.16398651       0.36857178      -0.98986451
6
Properties=species:S:1:pos:R:3:forces:R:3 charge=-1.0 dipole_moment="2.214431997730189 -2.2390281544771966 2.057356326318524" energy=-12.567951374330502 pbc="F F F"
C        0.76639800      -2.27271200       1.54924900      -3.73329195      -0.78596521       0.66424198
H        0.33763600      -2.79441600       2.41817700       1.42866546      -0.91977109       0.07387654
H        0.57128400      -2.92402100       0.64565800       0.16977818       1.48015952       0.90598380
H        0.12647100      -1.41012800       1.79671800      -0.19760832      -0.00627966      -1.90730155
Br       2.44602200      -1.57462200       1.69143100       2.33718334       0.25008711       0.24942582
Br      -2.60698700       2.16790300      -2.09588900      -0.00380883      -0.01745008       0.01362839
6
Properties=species:S:1:pos:R:3:forces:R:3 charge=-1.0 dipole_moment="3.980550354442798 0.8523891255864452 -0.41602324762897497" energy=-12.01240854911837 pbc="F F F"
C        2.29272500      -0.74143600      -1.18728100      -2.14971751      -3.33788865      -1.33297208
H        1.43468700      -1.54490800      -1.00160900       1.77580452       2.06473123       0.33303707
H        3.19994900      -1.02437300      -0.73733300       1.02952943      -1.79412363      -0.43147485
H        2.33944800      -0.78615900      -2.31052200       0.22629926       1.30599761       1.17268127
I        2.29520800       0.91034300       0.03498800      -0.89983167       1.77873404       0.27212866
Br      -4.06789900      -1.15554600       0.26625100       0.01789179      -0.01764034      -0.01368650
6
Properties=species:S:1:pos:R:3:forces:R:3 charge=-1.0 dipole_moment="1.0323665283168921 2.044052811244949 -3.9802487234327764" energy=-13.096950717914694 pbc="F F F"
C       -0.91226800       0.30364100      -1.73024000       1.04008124      -0.96083315       1.11807103
H       -1.22163500       0.13699500      -0.70189900      -0.03267410       0.16029955      -0.05761226
H       -0.88033400      -0.67648700      -2.21050700       0.39320295       0.36370005      -0.09122018
H       -1.59498500       0.94753200      -2.23316500       0.06451155       0.81930985      -0.40805467
Br       0.97341200       1.03151400      -1.51659100      -1.44649041      -0.39345800      -0.52021751
Cl      -1.46463900      -2.25487600       4.03574700      -0.01753492       0.01176845      -0.04076279
6
Properties=species:S:1:pos:R:3:forces:R:3 charge=-1.0 dipole_moment="0.015277346068978095 4.467774395753137 2.3472396022653963" energy=-11.494231800171088 pbc="F F F"
C        1.05389700      -0.21270300       1.03889000      -1.81462253       6.23511178      -2.69651869
H        1.55714100      -0.54873100       0.26582800       1.28074834      -2.94379816      -3.76631314
H        0.81334700      -0.56747700       1.89505200      -2.58813743      -3.59133208       4.76592368
H        1.61139900       0.59565100       1.30746500       2.02533216       2.29095336       0.94678413
Br      -0.39916200       1.30211100       0.28380800       1.06161886      -2.01441988       0.71528147
F        0.40726900      -4.86412200      -2.18166100       0.03493564       0.02370094       0.03481171
6
Properties=species:S:1:pos:R:3:forces:R:3 charge=-1.0 dipole_moment="1.291267007762462 2.752303060686384 -2.5260760989298676" energy=-12.742512142274379 pbc="F F F"
C        0.19266700       0.80268200      -2.77995500      -0.62200338      -0.78245977      -0.18599259
H        1.01363700       0.35062700      -3.35954900      -0.24727689       0.60723651       0.33350399
H       -0.50930700       1.38197900      -3.42542700       0.85518343      -0.17216674       0.74442184
H       -0.35920400      -0.02605300      -2.31533400       0.11114674       0.34906688      -0.24070001
I        0.93712700       1.87735300      -1.06588900      -0.09332385      -0.00060729      -0.62328430
Br      -1.45625300      -3.02920900       2.35063400      -0.00344271      -0.00108346      -0.02735603
6
Properties=species:S:1:pos:R:3:forces:R:3 charge=-1.0 dipole_moment="0.6413686001526917 2.072892440043468 3.5183484575339694" energy=-12.905067902305145 pbc="F F F"
C       -0.29310400      -0.76054600      -0.75400200       3.14550481      -0.43709528      -1.61040236
H       -0.04781300      -0.21299800      -1.73302500      -0.00710139      -1.15648949       1.63663790
H       -1.22650100      -1.20860700      -0.91326400      -1.78775450       0.01950182       0.60170195
H        0.40634900      -1.62021600      -0.49502700      -0.74693226       1.29608857      -1.00029856
I        0.18023400       0.57149000       0.84809300      -0.61734865       0.12693177       0.10521932
F       -0.76953300      -2.52042800      -4.14262500       0.01384848       0.15145136       0.26790074
6
Properties=species:S:1:pos:R:3:forces:R:3 charge=-1.0 dipole_moment="-2.6197976163384085 0.8436989774345658 0.939993354440868" energy=-13.73416610207928 pbc="F F F"
C       -2.08304200       0.17342300      -0.04266800      -0.04688407       0.64182864      -1.08853523
H       -1.72307000      -0.83895000      -0.04477700       0.19209690      -0.26580426       0.00906777
H       -1.69297400       0.71505200      -0.92926800      -0.25800097      -0.52017997       0.61086022
H       -3.17234400       0.20244100      -0.04073100       0.14781839      -0.03139163       0.02523641
Cl      -1.48816500       1.00808000       1.38947500       0.05526741       0.17923213       0.45838402
Cl       2.61090900      -1.07390800      -1.31472300      -0.09004364      -0.00285495      -0.01367261
6
Properties=species:S:1:pos:R:3:forces:R:3 charge=-1.0 dipole_moment="-1.2188379937753784 1.384787967008199 2.3258343840980893" energy=-12.212713054055854 pbc="F F F"
C        0.19441400       1.55676100       0.08332600       1.51870396       1.75498424      -0.49359322
H        0.92922000       0.86704000      -0.53091500      -0.47760199       3.49780459      -0.04944592
H        0.62121200       2.17553200       0.99503300      -0.46478607      -1.51709496      -2.04964297
H       -0.58739000       2.28351500      -0.43149600       1.69732931      -2.13460611       0.66551673
Br      -0.43899900      -0.08872000       0.67706400      -2.24635603      -1.83444985       1.72201087
F        1.47060300      -1.28460600      -2.69220100      -0.02817209       0.23218297       0.20483055
6
Properties=species:S:1:pos:R:3:forces:R:3 charge=-1.0 dipole_moment="-0.07897440690454766 -1.9682375922874678 0.36451842972479637" energy=-12.730624670238074 pbc="F F F"
C        0.27829200      -3.14512100       0.88687800      -1.18208071      -0.07057422      -3.57244938
H       -0.14986600      -3.77806200       1.67415600      -0.32920664      -0.04868641      -0.91772295
H        0.77196400      -2.32939600       1.36207000       0.57855739       0.63455448      -0.30180125
H        0.78003400      -3.64526100      -0.05174000      -0.62668022       0.85466149       2.72038059
Cl      -1.12963200      -2.20716300      -0.30360100       1.50212548      -1.36776374       2.02849667
Br       0.46091000       1.88986300      -0.08984400       0.05688566      -0.00175349       0.04276670
6
Properties=species:S:1:pos:R:3:forces:R:3 charge=-1.0 dipole_moment="-0.7507172497663932 2.1252127200291255 0.6464428804247884" energy=-14.848501281887893 pbc="F F F"
C       -0.51485500       1.99125100       0.78575300       1.27086656       1.99987567       3.65490878
H       -0.26903100       2.91121900       1.42653700       0.08832151      -1.63254624       0.27365847
H        0.23026000       2.09167000       0.07155900       1.94224953      -1.44755998      -1.13039587
H       -0.63375200       1.05671000       1.42672800       0.12042431       1.14209902      -1.50077103
F       -1.58465700       2.45410600       0.15371900      -3.40647232      -0.14180406      -1.34781249
Cl       1.06021000      -2.35847400      -0.53075400      -0.01742797       0.08059792       0.04913996
6
Properties=species:S:1:pos:R:3:forces:R:3 charge=-1.0 dipole_moment="0.9640926137871557 0.00984163776206632 -2.532310864824731" energy=-12.884728358378865 pbc="F F F"
C        0.19646100       0.74332000      -0.25276500      -0.24646391      -2.45149665       0.64317744
H       -0.72853200       0.23583100       0.09692500       0.58099634       0.49538734      -0.46721525
H        0.10378900       1.81582100      -0.15766200       0.44847653       0.03704086      -0.61011717
H        1.00828000       0.23414500       0.27752800      -0.34373286       1.04934801       0.42806660
I        0.77289500      -0.23235800      -2.17292100      -0.49622192       0.82970842       0.19745045
Br      -1.21502200       0.15912100       3.32756000       0.05708364       0.04011898      -0.19149835
6
Properties=species:S:1:pos:R:3:forces:R:3 charge=-1.0 dipole_moment="-3.3165229153109728 0.6906133021905522 -0.7155640076686373" energy=-12.221529547762868 pbc="F F F"
C       -0.83779900       0.33485100       0.56252500       6.24605337       3.57456848       3.69088520
H       -0.08193400      -0.24036700       1.27149600      -0.34608800      -0.56342233      -3.37395506
H       -1.47515700       0.34201500       1.37096500      -2.80311149       1.09928038       1.01521353
H       -0.14529400       1.40304600       0.53047700      -2.34374377      -2.84649218       0.33819985
Cl      -1.51227100       0.15653500      -0.95333700      -0.60091776      -1.29963155      -1.71636473
F        3.60419800      -0.68609800       1.07318300      -0.15222937       0.03583090       0.04545299
6
Properties=species:S:1:pos:R:3:forces:R:3 charge=-1.0 dipole_moment="1.76053553714116 1.1110657630719467 -0.09425704474563139" energy=-14.186934765324219 pbc="F F F"
C        1.15782100       0.98975200       0.14777900      -4.99149634       2.04790336      -4.46065606
H        2.05522800       0.64871700       0.24731600       6.11277971      -0.50334799       1.54295666
H        0.64544900       1.46832900       0.93867700      -0.55654515      -0.33092208       1.30159228
H        1.00288600       1.66561400      -0.74493600       1.11106529       0.36435877       1.15397855
F        0.60560400      -0.12078200      -0.39656600      -1.31671088      -1.56597883       0.28403802
F       -1.78899200      -0.95934800       0.24904000      -0.35832799      -0.01212532       0.17793989
6
Properties=species:S:1:pos:R:3:forces:R:3 charge=-1.0 dipole_moment="-2.789503689411811 2.237319441264286 -1.8154318517878423" energy=-11.69254801104937 pbc="F F F"
C        0.38273700      -0.26175200      -1.54152300      -6.24401243      -3.54430505       3.48092376
H        0.64220600      -0.98184000      -0.70548500      -0.23575218       0.64266631      -1.30064611
H        1.16087900      -0.20983000      -2.16029100       3.22138939       2.22333077      -2.22628703
H       -0.55330400      -0.63143100      -2.11063200       2.20305454      -0.12170266       0.61197865
I       -1.08124500       0.90823500      -0.29072800       1.13346371       0.75430722      -0.45552135
Cl       3.16234000      -2.63193200       1.74318300      -0.07807772       0.04559749      -0.11055744
6
Properties=species:S:1:pos:R:3:forces:R:3 charge=-1.0 dipole_moment="-1.0917158691904691 1.2986405630144584 0.22921522546457004" energy=-12.16407566440454 pbc="F F F"
C        0.51501600       0.93404400       1.61116700       4.66742419      -1.13397279      -1.24153233
H        0.09645000       1.40953900       2.47756500      -1.46874793       0.05573484      -0.17232923
H        1.49616600       1.68807300       1.35440200      -2.77953859      -2.37280392       0.25841234
H        0.93339300      -0.12213700       1.87001300      -0.32167125       2.13261710      -0.20784594
I       -0.38862800       0.14520300      -0.27085800      -0.21526871       1.29762249       1.09368052
F        1.66457400      -1.80839000      -0.11261200       0.11755702       0.02089536       0.26925211
6
Properties=species:S:1:pos:R:3:forces:R:3 charge=-1.0 dipole_moment="-2.1426173584845705 1.7398923341570647 0.7343974245926044" energy=-12.983510865095143 pbc="F F F"
C       -1.60376700       0.14903400      -0.79623200       1.53853333       1.58373282      -1.21528291
H       -1.00853700       0.20816800      -1.78143500      -0.59863308       0.62321951       1.86682415
H       -2.49328300       0.78656200      -0.79040300       0.12004276      -0.73566466      -0.29804333
H       -1.71538800      -0.90429500      -0.70842400      -0.39512254      -0.64640881       0.97486315
Br      -0.60845900       0.98045600       0.78578100      -0.51438471      -0.85651012      -1.27245242
Cl       2.12564100      -2.07650600      -1.14380500      -0.14946132       0.03120497      -0.05576363
6
Properties=species:S:1:pos:R:3:forces:R:3 charge=-1.0 dipole_moment="-1.9978011355100378 -1.0673070411760013 2.784943240211172" energy=-11.460958013507684 pbc="F F F"
C       -2.03954000       0.21575000       0.39353000      -0.10579319      -4.15570418       2.06278799
H       -2.91002800       0.40060600       0.92883500      -2.14225926      -0.50029917       1.26397806
H       -2.21126800      -0.80995100      -0.11778800       0.91944610       3.03329775      -0.65353796
H       -1.73998500       1.22499600       0.41561400       2.01388458       0.62458631      -1.94995307
I       -0.81082400      -0.92477300       2.04729700      -0.62995529       0.98884944      -0.73963650
Br       1.77349100       1.34008100      -3.20270200      -0.05475885       0.00885128       0.01667926
6
Properties=species:S:1:pos:R:3:forces:R:3 charge=-1.0 dipole_moment="0.06846124326227582 -0.962785546077063 1.4079495243373676" energy=-13.180443148252118 pbc="F F F"
C        0.33344100      -2.28613900       3.26575200      -0.44948800       1.42317513      -3.44623083
H       -0.15291400      -3.02402700       3.87946000       0.09644363       0.38791162       0.74369884
H        1.12298900      -1.57542900       3.58063300      -0.65030814      -1.05557934       0.46026144
H        0.64409300      -2.79079500       2.30755300      -0.02056523       0.49631911       1.21212354
Cl      -0.97993500      -1.07971400       2.53098200       0.98974624      -1.24874016       1.05717754
I        0.24611500       0.74457000      -1.36582700       0.03408666      -0.00243021      -0.02802091
6
Properties=species:S:1:pos:R:3:forces:R:3 charge=-1.0 dipole_moment="1.4389862969141476 -1.5901669342001314 0.01989706311720043" energy=-14.844688719969684 pbc="F F F"
C        2.96123300      -3.11176400       0.02637500       2.02201955       2.03977610       4.01295035
H        2.13474400      -2.40229800       0.12995300      -0.57784262      -1.18141119      -0.36762099
H        3.32784500      -3.48263600       1.04808300      -1.85122270      -0.63721814      -1.35752046
H        3.02108400      -3.83272000      -0.73901100      -0.39525160      -0.62562966      -0.91664925
F        4.03099300      -2.19995200      -0.07517500       0.79163964       0.43715545      -1.37356517
Br      -1.78657200       1.37679400       0.00226600       0.01067625      -0.03321300       0.00238547
6
Properties=species:S:1:pos:R:3:forces:R:3 charge=-1.0 dipole_moment="-1.575380135405346 0.4095508811665687 0.5854837824766761" energy=-12.36418284990759 pbc="F F F"
C       -1.22656300      -1.05682700      -0.53214600       2.05626305      -0.81456719      -0.72580859
H       -2.14559600      -1.54070600      -0.42542800      -2.12321869       0.33370093      -0.03990867
H       -0.54681200      -1.96353200      -0.60957500       0.29921884       1.81512286       1.46246416
H       -0.96363900      -0.54800300      -1.44162800      -0.70906762      -0.10300251      -0.57806631
I       -1.07898800       0.71152500       0.74773100       0.07590874      -1.20487200       0.06158512
Br       1.94862200      -0.78050300      -0.97029300       0.40106024      -0.02596352      -0.17937868
6
Properties=species:S:1:pos:R:3:forces:R:3 charge=-1.0 dipole_moment="-2.607679458216497 -0.3449282893897229 1.249794860593363" energy=-13.170839055161895 pbc="F F F"
C       -0.41410200      -0.82535200       0.26693500       4.01101739      -3.18005221       3.30678036
H       -0.80448600      -1.80267000       0.73540400       0.65415451       1.46995892      -0.44652815
H        0.66666800      -0.53690300       0.80471300      -2.62442084      -1.25498486      -2.37714703
H       -0.46327800      -0.97599500      -0.76194100       1.08925411      -0.18602498      -1.67155142
Cl      -1.42259700       0.42497700       0.61539900      -2.96238363       3.22403608       1.06797103
F        3.02998400       0.11589600      -1.42684100      -0.16770536      -0.07245369       0.12056778
6
Properties=species:S:1:pos:R:3:forces:R:3 charge=-1.0 dipole_moment="0.7756684844216889 -0.4454264501567443 0.5661042546714071" energy=-14.993787192226044 pbc="F F F"
C        2.94781800      -1.10085900       1.98163300       1.26680525      -2.03582535      -0.28322606
H        2.46848700      -0.51874800       1.15105700      -0.50803768      -1.40104924       1.05353994
H        2.39252800      -1.52948300       2.88965100       0.18319009       1.76920913      -1.24783616
H        3.48990600      -2.07727700       1.67909000      -1.06433549       1.54853904      -0.47199698
F        4.00193900      -0.25521400       2.32527200       0.05942385       0.14727794       0.91655772
I       -1.17085400       0.24580400      -0.72711400       0.06304140      -0.02824049       0.03342126
6
Properties=species:S:1:pos:R:3:forces:R:3 charge=-1.0 dipole_moment="-0.9810257553479882 -1.8805688038133561 1.3254936605645207" energy=-13.198616656388205 pbc="F F F"
C       -1.26368000      -2.19205700       0.16504700       1.68025512      -1.12920854      -0.11601744
H       -0.80412800      -3.21961900       0.16460700      -0.83557774       0.98552140       0.22106964
H       -0.85082700      -1.69378600      -0.70349100      -0.22018466       0.41127369       0.01960466
H       -2.33079900      -2.19234600       0.19654800      -0.47248858      -0.09052444      -0.05389855
Br      -0.60385500      -1.27044100       1.74240800      -0.10855507      -0.09319890      -0.05187355
Br       0.93436500       1.84924400      -1.76092100      -0.04379155      -0.08464124      -0.01939589
6
Properties=species:S:1:pos:R:3:forces:R:3 charge=-1.0 dipole_moment="-4.797751841412801 -1.659579638087001 1.318824969356995" energy=-12.268709964740909 pbc="F F F"
C        0.25524200      -0.22013000       0.87768900       0.48826538      -1.73988158      -3.59646709
H        0.63616600       0.24893200      -0.05279300       0.07413262       0.08519865       0.90779592
H        0.43559600      -1.32396000       0.63336500       1.08283818       1.74223311       1.82643932
H        0.55100300       0.36950200       1.73420000      -0.44903292      -0.67858205       0.42172780
I       -1.76514000      -0.52340500       0.26830800      -1.13988582       0.61119600       0.41364374
Cl       5.31754000       1.75098600      -1.28242400      -0.05690726      -0.02040016       0.02667983
6
Properties=species:S:1:pos:R:3:forces:R:3 charge=-1.0 dipole_moment="0.277241232386502 -1.0613125217347343 -2.727617472990791" energy=-14.150961948738807 pbc="F F F"
C        0.57924100      -0.61957300      -1.41657300       0.70436251       3.29247937      -1.10761076
H        1.18232900      -1.29612500      -0.69603000      -2.05637669      -0.66584789      -1.92458450
H        0.84667300       0.26631900      -0.77269200      -0.65405630      -0.08012792      -1.20587267
H        0.95395300      -0.39647000      -2.59377100      -0.65075294      -1.22393210       3.66105886
F       -0.88703200      -0.54620300      -1.55001800       2.56708369      -1.27586016       0.70707553
F        0.16943200       1.11772600       2.94578800       0.08804949      -0.04670101      -0.13030352
6
Properties=species:S:1:pos:R:3:forces:R:3 charge=-1.0 dipole_moment="-0.20217744506802116 0.035290828172502564 -1.4374093488266673" energy=-13.295292806891963 pbc="F F F"
C        0.00400000       0.01929900      -1.88611500       2.28411217      -4.62024136      -0.92970480
H       -0.17836200      -1.07802800      -1.62928800      -0.17218114       1.29963053      -0.72821823
H       -0.16149700       0.41610100      -0.95894000      -1.42700196       2.24823757       1.93824426
H        1.16314200      -0.03315800      -1.90691500      -1.89074364       0.85536341      -1.31692942
Cl      -1.04376400       0.38798200      -3.34460500       1.20951438       0.20813647       1.23805928
Br       0.48276300      -0.17189700       2.07628900      -0.00419861       0.00898806      -0.20246410
6
Properties=species:S:1:pos:R:3:forces:R:3 charge=-1.0 dipole_moment="1.0840586749536103 1.321599974649192 -0.500914384924837" energy=-12.65744440118384 pbc="F F F"
C        1.17613500       0.20733700      -1.34910400      -3.57686705       0.41820847      -3.24319234
H        0.11753800      -0.12481900      -1.13293500       1.46678978      -0.49947231      -0.08659270
H        1.87723600      -0.59195300      -1.27741100       0.64666386      -0.05775727       0.57523604
H        1.06099700       0.60079000      -2.44152600       0.77621405      -0.78715512       1.85274530
I        1.18490100       1.89048600      -0.16921900       0.75181530       0.97145849       0.90121903
I       -1.37570500      -1.91176900       0.41349200      -0.06460000      -0.04552756       0.00043554
6
Properties=species:S:1:pos:R:3:forces:R:3 charge=-1.0 dipole_moment="0.8779102840975181 0.12197534703496539 2.1033365341444163" energy=-14.312360551081259 pbc="F F F"
C        1.58805500       0.15257600       4.07755900      -2.55309329       1.34475647      -2.52973739
H        2.58222600       0.14094600       4.10840600       4.50196906      -1.81728722      -0.65656261
H        1.28761200      -0.11675300       5.00010700      -1.31949076       0.27313808       3.41168446
H        1.57122100       1.24479800       3.77808400      -1.83607581      -1.23929496       0.02735294
F        0.91114200      -0.82206000       3.30621600       1.20562379       1.41598118      -0.22491652
Br      -0.66199000       0.14897400      -1.91736900       0.00095131       0.02269359      -0.02716371
6
Properties=species:S:1:pos:R:3:forces:R:3 charge=-1.0 dipole_moment="-0.40391567305127435 1.0240637378831454 -1.6641829506416959" energy=-13.435854317460093 pbc="F F F"
C        0.37948500      -0.31378700      -1.19596000      -5.60774200       1.95234316      -2.00810114
H        0.11613700      -1.31136900      -1.00244300      -0.44747740      -0.87740239       1.01668471
H        1.26137400      -0.02108900      -0.90107200       4.88080932       0.85241075       1.19475933
H        0.06898400       0.01641600      -2.21779400       0.81167110      -0.56131609       0.68128274
Cl      -0.61835700       1.01257000      -0.22843500       0.29555862      -1.31631904      -0.55248589
F        0.75429600      -1.55721400       1.68671800       0.06621003      -0.04868538      -0.33111440
6
Properties=species:S:1:pos:R:3:forces:R:3 charge=-1.0 dipole_moment="-1.6297536229679912 0.26101771746503577 -2.472277297817895" energy=-12.424463111858993 pbc="F F F"
C       -1.85325100      -0.72035600      -3.44611000      -3.32649198       1.36331624       1.92053656
H       -1.21997500      -0.33526400      -4.15662700       0.89399012       0.60583474      -2.04473165
H       -2.95540400      -0.41978800      -3.50166300       1.76590680      -0.55677449      -0.72690903
H       -1.79570500      -1.77355600      -3.33747600       0.47223712      -0.73821314       0.70294120
I       -1.32927800       0.58921800      -1.78394200       0.20414458      -0.68749504       0.15677046
I        1.65174200      -0.45995800       2.38153500      -0.01086754       0.01248476      -0.00882248
6
Properties=species:S:1:pos:R:3:forces:R:3 charge=-1.0 dipole_moment="-1.8730386121070326 -0.4911976329844637 -4.1453086205974286" energy=-12.14502037171233 pbc="F F F"
C       -0.31805000       0.59927800       1.01597300       3.27560161      -3.88445946       3.68571368
H        0.90168400       0.59749400       1.41905300      -3.77687318       0.30413787      -1.25574488
H       -0.77739400      -0.28559200       1.72686600       1.10587680       2.18668586      -2.06238639
H       -0.82223300       1.49153700       1.33083800      -0.21158278       0.63920612      -0.92709873
I       -0.29123500      -0.20864300      -1.01031900      -0.29300551       0.75054312       0.76980994
F        2.00463200       0.62877200       4.77492600      -0.09998918       0.00376667      -0.21075026
6
Properties=species:S:1:pos:R:3:forces:R:3 charge=-1.0 dipole_moment="-2.817703542962758 1.0310483478853776 1.805983392693225" energy=-11.4439415917116 pbc="F F F"
C       -1.42800400       0.75182200      -0.59835700      -5.80430336       0.63180288       0.88896104
H       -0.65738200       0.19397900      -0.85943300       5.12143425      -1.07537375      -0.66214396
H       -1.59651500       1.85717000      -1.09398600       0.20219414      -3.43235921       1.50051032
H       -2.10528000      -0.23991400      -0.78089200       0.03856964       3.33109785      -0.28407607
I       -1.76933700       0.61376000       1.66409600       0.54809547       0.51530876      -1.45537151
Br       3.04863100      -1.11004200      -2.33921800      -0.10621845       0.02964482       0.01214795
6
Properties=species:S:1:pos:R:3:forces:R:3 charge=-1.0 dipole_moment="-1.5330792967245042 1.637470085052433 0.34526167103237815" energy=-14.54969511071664 pbc="F F F"
C       -0.65096800       1.19753400       0.42129300      -2.12664803       1.15411379      -2.44823701
H        0.34320300       1.18590500       0.45214000       4.38481777      -2.04754187      -0.65910543
H       -0.95141000       0.92820500       1.34384100      -1.28935537       0.23453553       3.39896470
H       -0.66780200       2.28975700       0.12181800      -1.89706598      -1.09133619      -0.02489445
F       -1.32788100       0.22289800      -0.35005000       0.93485832       1.56340002      -0.35639349
F        1.90363900      -1.51057300      -0.14390100      -0.00684428       0.18688219       0.09044730
6
Properties=species:S:1:pos:R:3:forces:R:3 charge=-1.0 dipole_moment="-0.7017519532957105 -0.39778568424410277 -0.8758935897480593" energy=-14.862532034902541 pbc="F F F"
C       -1.93586900      -0.92062700      -2.86461800      -1.83612981      -1.41184222      -0.56552498
H       -2.95449700      -0.54107900      -2.77951900       0.39343435       1.02123762       0.91243522
H       -1.68865100      -1.62194500      -2.10462900       0.60990274       0.49600852       1.54480168
H       -2.18278500      -1.65260500      -3.61496800       0.88239033      -0.09015934      -1.71042754
F       -0.98445000      -0.01578600      -3.17435500      -0.02005306       0.02898148      -0.19679739
I        0.51511700       0.17889600       1.02369800      -0.02959237      -0.04341257       0.01576395
6
Properties=species:S:1:pos:R:3:forces:R:3 charge=-1.0 dipole_moment="2.1614454836364314 0.8993790035300931 1.3833433132233597" energy=-15.142747922255719 pbc="F F F"
C        2.02776600       0.73028200       1.12538200       0.88565563       3.82093675      -2.51335894
H        2.86541700       0.23980100       0.68453100       0.54034000      -0.23043514      -0.53682633
H        1.56924000       1.53345800       0.48265000       0.65523386      -1.19930916      -0.15413302
H        1.28500100       0.08153300       1.30122200      -2.61772054      -2.51074465       1.35424282
F        2.44996900       1.44620900       2.19641600       0.47627530       0.10283796       1.81328761
Cl      -2.34917500      -1.13249200      -1.70520200       0.06004709       0.01741511       0.03656160
6
Properties=species:S:1:pos:R:3:forces:R:3 charge=-1.0 dipole_moment="-1.0082884360590267 0.6271056867963645 -0.6040721903521521" energy=-13.126323003525929 pbc="F F F"
C       -3.44783400       2.33796100      -2.05165000       1.47031168      -7.30388397      -2.45495582
H       -3.37925500       1.18025900      -2.60052000      -0.17349034       1.70406868       2.45616475
H       -3.87640700       2.04436500      -0.98002800       1.30608039       1.59830789      -2.44941200
H       -2.30425900       2.31160900      -2.44290700      -2.55014783       2.01194700       1.74342662
F       -4.39182000       2.72242700      -3.00363200      -0.02485486       1.96947803       0.72437855
I        1.31647700      -0.83143100       0.85596300      -0.02780854       0.01894852      -0.01947971
6
Properties=species:S:1:pos:R:3:forces:R:3 charge=-1.0 dipole_moment="0.14993707084115873 -1.1237924749860069 -1.1750644549175373" energy=-15.020453335014697 pbc="F F F"
C        0.31103800      -2.28724600      -2.38058400      -1.01549738      -1.45747262       0.34127592
H        0.70326700      -3.33499100      -2.32374600      -0.48466532       0.66992515      -0.50642457
H        0.67088900      -1.79508700      -3.28697500      -0.03937799       0.08541977       0.19313100
H       -0.82282400      -2.30744700      -2.34738100       1.33986418       0.06570455      -0.21272486
F        0.76461900      -1.68753200      -1.25208700       0.25645779       0.56026296       0.14581139
Br      -0.26568900       1.03853700       0.95744000      -0.05588190       0.07668676       0.04016526
6
Properties=species:S:1:pos:R:3:forces:R:3 charge=-1.0 dipole_moment="1.3039513854996772 0.1463741206824324 -0.13627318608718983" energy=-14.983652357897558 pbc="F F F"
C        4.41306800       0.65001100      -0.32834900      -3.57597179      -1.05123469      -1.25701449
H        3.54293800       1.10325000      -0.92194700       1.56606162       0.08655619       0.33829909
H        3.87825600       0.54897300       0.64496600       0.78392633      -1.18019917      -0.61163052
H        4.69049900      -0.26469400      -0.98647500      -0.11498591       1.25491132       1.90154639
F        5.43391200       1.48700600      -0.10397700       1.30174294       0.88694067      -0.36627064
I       -1.65085500      -0.35227600       0.07866700       0.04077410       0.00414462      -0.00507947
6
Properties=species:S:1:pos:R:3:forces:R:3 charge=-1.0 dipole_moment="-0.9823169477417639 -2.099918049364174 -0.30236127457196754" energy=-14.455920119672708 pbc="F F F"
C       -0.85459300      -1.40924400      -0.22694100      -4.39994820       1.09737314       1.36533919
H       -1.63661100      -1.07904100      -0.93566700       0.37815582       1.50022544       0.12159828
H       -1.55788300      -1.65411700       0.66274600       1.80872339       0.17008671      -0.83004524
H       -0.63619400      -2.23310600      -0.77898400       1.84486847      -3.13457197      -0.74917324
F        0.14503800      -0.58324000       0.02889500       0.34804666       0.17722307       0.08676291
F        0.85032200       2.07454300       0.23927700       0.02215880       0.19236018       0.00604364
6
Properties=species:S:1:pos:R:3:forces:R:3 charge=-1.0 dipole_moment="3.4032180177176468 1.2506838783071104 -1.20658224957872" energy=-13.049154182889612 pbc="F F F"
C       -0.27428300      -0.31069800      -1.22987800      -0.38778358       2.79428798      -0.93040723
H       -0.31022500       0.35077100      -2.17041300      -0.23460341      -0.10261222       1.95246503
H       -1.28786000      -0.49147000      -0.80332200       1.08763843       0.02912854       0.13191611
H        0.23649200      -1.09576200      -1.67104900       0.70321168      -2.23566744       0.11883074
Br       1.09620800       0.48091100       0.09271900      -1.33868301      -0.55266484      -1.09911583
F       -3.92888700      -1.52569200       0.97543300       0.17143346       0.06768378      -0.17265113
6
Properties=species:S:1:pos:R:3:forces:R:3 charge=-1.0 dipole_moment="0.29149197466698623 2.056424974427932 -1.1470762722508159" energy=-12.3476041146563 pbc="F F F"
C        0.95396300      -0.14070800       0.05331400       3.63372649       0.94847334      -1.67800284
H        1.39376600      -1.15761400      -0.39350600      -0.48034227       2.88001474      -0.89201911
H        0.32656800      -0.70142500       0.58335500      -3.48983006      -1.11785043       3.09867936
H        1.73324100       0.43332600       0.63857600      -1.20781128      -0.76192900      -0.84895056
Br      -0.21352700       1.47100600      -0.83549500       1.41133005      -2.03175478       0.41521262
Cl      -0.10023100      -2.89501500       1.65258900       0.13343615       0.08266971      -0.09473179
6
Properties=species:S:1:pos:R:3:forces:R:3 charge=-1.0 dipole_moment="-1.6555256114768715 -1.8216978391381289 -1.9012755080627193" energy=-12.406615000515313 pbc="F F F"
C       -2.57017500      -1.95246200      -1.23999600       3.32258956       1.32239662       0.09307651
H       -2.97640100      -2.19333800      -2.15246600      -1.49694368       0.19979170      -1.91195216
H       -3.04416000      -1.28460300      -0.53792800       0.06952726      -0.15669024      -0.06229269
H       -2.03892000      -2.80192400      -0.95059000      -0.29821354      -1.47240250       1.65875916
Br      -0.64561700      -1.19631000      -1.78227000      -1.58705674       0.10412249       0.20337068
Br       1.31648900       1.71044200       2.09886900      -0.01038983       0.00292334       0.01960261
6
Properties=species:S:1:pos:R:3:forces:R:3 charge=-1.0 dipole_moment="-1.2446883005114222 -0.857378208327641 1.2806935179181858" energy=-12.412848711546314 pbc="F F F"
C       -2.39033300      -1.04427700       2.17216300       2.50930483      -5.52662728       1.79882310
H       -2.86285600      -2.08240900       2.43983500       0.68425442       2.21823330      -0.34750879
H       -2.62477000      -0.79386400       1.22390900      -2.30802806       2.52672868      -1.99652089
H       -2.04844300      -0.53609700       3.06226500      -0.54319649       0.84372968      -0.55015338
Cl      -0.74090800      -1.58863000       1.28539700      -0.33868013      -0.10250989       1.12516985
Br       0.98495700       1.04813500      -1.18887800      -0.00410502       0.03998014      -0.03112835
6
Properties=species:S:1:pos:R:3:forces:R:3 charge=-1.0 dipole_moment="0.18498765256006536 0.2461600089240348 2.0678081054043704" energy=-13.200533683039708 pbc="F F F"
C       -0.18895000      -0.06037600       2.00458100      -0.58829313      -2.71993527      -1.19197791
H        0.54121900      -0.13227400       1.19364700      -0.09821512      -0.42193400       0.30665498
H       -0.99001300       0.50909300       1.56208400      -0.41393581       0.25054065       0.50090904
H       -0.52940800      -1.09020700       2.39138900       0.37892818       1.66525942      -1.23294536
Br       0.63455000       0.69621500       3.48115700       0.71872417       1.21553745       1.49697916
I       -0.37919500      -0.43947000      -2.62292700       0.00381860       0.01087474       0.12087425
6
Properties=species:S:1:pos:R:3:forces:R:3 charge=-1.0 dipole_moment="-0.7230132352617444 0.8822511247557733 -0.5878349168232113" energy=-12.549955969588853 pbc="F F F"
C       -2.03707600       2.20232200      -1.21397100      -0.04727488       0.48009544      -2.93372354
H       -2.30365200       1.45630800      -0.55974200      -0.91145254      -1.87655372       1.33822793
H       -2.51698700       2.03865500      -2.28894200      -0.91172045       1.83696284       3.15692720
H       -1.80034600       3.08028100      -0.58614500      -1.12765919       0.25885406      -1.18933122
Cl      -0.53673300       1.73322500      -1.92089900       3.06128318      -0.66931425      -0.46425128
I        0.52769600      -0.92932100       0.81837600      -0.06139795      -0.03087587       0.09227947
6
Properties=species:S:1:pos:R:3:forces:R:3 charge=-1.0 dipole_moment="-1.1906645990849596 -0.14064471902365772 -3.367408595878792" energy=-12.669056425015748 pbc="F F F"
C       -1.46814300      -0.63835400      -2.23881600      -2.94187394       3.16233371       3.32425357
H       -1.80569600       0.31090500      -2.73106200       0.40282042      -1.65843160      -0.49452191
H       -2.39011600      -0.96878000      -1.59990800       1.88934959       0.71913812      -0.75302115
H       -1.17100000      -1.49565600      -2.71782900       1.20294881      -1.33704574      -1.68629310
Br      -0.07737700       0.16528800      -1.04349500      -0.55428875      -0.89925008      -0.35424456
Cl       0.99316900       0.01168100       3.35317800       0.00152775       0.01340265      -0.03619394
6
Properties=species:S:1:pos:R:3:forces:R:3 charge=-1.0 dipole_moment="-2.1582545450567316 -4.199735555058341 1.087353332266581" energy=-12.895388991740722 pbc="F F F"
C       -1.77191700      -1.48065500      -0.26359900       1.52748633       0.77639505       1.83138561
H       -2.55944600      -0.78367600      -0.08347800      -0.26618376       0.52729113       0.47863197
H       -1.81155900      -2.33653300       0.38786600      -0.40175238      -0.37038338      -0.34521331
H       -1.72676200      -1.64420900      -1.29725100       0.50182127      -0.58660957      -1.23717020
Br       0.00221100      -0.67379100       0.39231400      -1.36214690      -0.36100142      -0.72039282
F        1.85020900       4.13678000      -1.23961500       0.00136783       0.01404902      -0.00897778
6
Properties=species:S:1:pos:R:3:forces:R:3 charge=-1.0 dipole_moment="-1.2268836040847908 0.6379400610054484 -0.18826802208835058" energy=-11.918287210495075 pbc="F F F"
C       -2.64140100       0.31026300       0.19231700       2.64474541       3.84612893       0.95972603
H       -3.35075700       1.13939800       0.24803700      -0.35623408      -0.51191491      -0.44430826
H       -2.06669400       0.43444700       1.19303700      -1.37720740      -2.26847523      -1.60510126
H       -2.86310100      -0.44836400      -0.55098800       0.31390909      -0.51183314       1.05554694
Br      -1.00304500       1.35236800      -0.67250000      -1.77124030       0.15459170      -0.34418692
I        1.11765200      -0.94943300       0.40553800       0.54515413      -0.70833486       0.37747088
6
Properties=species:S:1:pos:R:3:forces:R:3 charge=-1.0 dipole_moment="-0.30565275682167464 0.9988166931671445 1.3856875682661576" energy=-14.269519493756396 pbc="F F F"
C       -0.64187300       2.01723600       2.90334400      -1.33901674       1.62467918      -5.89619614
H       -0.73313200       3.02970500       3.07411600      -0.86608902       2.12443380       2.58581984
H       -1.29488500       1.89646400       2.03956500      -1.20849057      -0.28865983       0.20674499
H        0.16063900       2.10784500       2.23873800       3.06426309      -1.46711014       0.07957771
F       -0.81888100       1.06232900       3.74115700       0.35598057      -2.04166741       2.99788440
Br       0.37395800      -0.81995400      -1.66979700      -0.00698723       0.04720032       0.02702178
6
Properties=species:S:1:pos:R:3:forces:R:3 charge=-1.0 dipole_moment="1.5280415296799363 3.034773093090467 2.151391116635719" energy=-11.873346558423343 pbc="F F F"
C        1.42641900       1.73449900       0.06789900       1.73666153      -3.77318313      -0.19845421
H        2.30635800       1.55918600      -0.72112500      -1.71583199      -0.61777854       2.59275153
H        1.50308300       1.91415000       1.11039900       1.33993977       1.01605994       0.25023932
H        0.79651600       2.30307900      -0.44290500      -2.67192866       3.02373376      -1.61736799
Br      -0.03075200       0.27083900       0.59568600       1.30960486       0.33548168      -1.03761247
F       -1.34312700      -2.85141800      -2.35586200      -0.00052142       0.01560968       0.01050039
6
Properties=species:S:1:pos:R:3:forces:R:3 charge=-1.0 dipole_moment="-0.018500035281311885 -3.4755406670854074 -1.8645506096495885" energy=-13.238631022203187 pbc="F F F"
C        0.50960100      -2.98760900      -1.36109700       1.15108863       1.12225576      -3.19691660
H        0.29009900      -3.89917200      -0.89627100      -1.00437993      -1.21587221       0.43884055
H        1.42123100      -2.63404000      -0.93426500       0.97369792      -0.09184855      -0.18196264
H        0.54513300      -3.01043300      -2.52023300       0.52341237      -0.78921766       2.14609843
Cl      -0.56031300      -1.66437500      -1.11802300      -1.65445821       0.96453811       0.78548647
Cl       0.24772100       3.28021600       1.85433800       0.00980002       0.01088862       0.00861988
6
Properties=species:S:1:pos:R:3:forces:R:3 charge=-1.0 dipole_moment="1.601468042708933 -0.46307292259741667 -1.0522000901688249" energy=-12.302027158096351 pbc="F F F"
C        3.19000600      -0.88090900      -1.19274600      -1.30062400      -3.29155788      -0.60994028
H        3.75631100      -1.62784400      -1.82210000      -1.44235504      -0.45857942       1.18875324
H        3.15723500      -0.97775500      -0.12782000       0.95956508       0.14366349       0.23683770
H        3.51283000      -0.09518600      -1.69740700       2.21711230       4.36684010      -0.56595950
Br       1.30863800      -0.50810400      -1.57806200      -0.40140683      -0.77588494      -0.27264494
I       -1.42205200       0.48622400       1.24596200      -0.03254143       0.01546210       0.02449902
6
Properties=species:S:1:pos:R:3:forces:R:3 charge=-1.0 dipole_moment="0.292803804971974 1.194953051199369 0.33364993550097577" energy=-12.352445923249167 pbc="F F F"
C        0.54607400       2.97502700       1.17267600      -3.38773309      -0.63544665       1.57778328
H        0.84378800       3.99577800       0.94270900      -0.14318423       0.27891226       1.75883267
H        0.96279200       2.29466000       2.01817500      -1.17026855       2.27382416      -0.70680660
H       -0.61202900       2.81923900       0.91207500       2.12120706       0.89437733       2.21626538
Cl       1.07433500       2.21269700      -0.17565600       2.68349194      -2.68009911      -4.90839057
I       -0.42895600      -1.21840900      -0.14948800      -0.10349514      -0.13275429       0.06205512
6
Properties=species:S:1:pos:R:3:forces:R:3 charge=-1.0 dipole_moment="1.1067423852616403 0.4802981699784802 -0.6583123252577353" energy=-13.071020018841239 pbc="F F F"
C        3.12926200       1.15093700      -2.04717600       0.48278173       6.40805036      -1.41888241
H        3.46295500       1.65396900      -1.07398000      -0.54125891      -1.90440546      -0.79403282
H        2.76295200       2.18848300      -2.55177400       1.10309179      -2.14902589       0.63335223
H        4.25572100       1.03514800      -2.75339700      -3.91278993      -1.47684125       1.89945145
F        1.85328700       0.54099000      -1.94123500       2.90780682      -0.87703112      -0.38335202
I       -0.86673200      -0.31419100       0.68176100      -0.03980171      -0.00069523       0.06299975
6
Properties=species:S:1:pos:R:3:forces:R:3 charge=-1.0 dipole_moment="-0.5020886291550781 -0.9165984299618406 -1.1203581148894477" energy=-14.290867028375528 pbc="F F F"
C       -1.01127600      -1.81921000      -2.33457000      -3.03130412      -1.04368439      -1.54501920
H       -2.02858000      -1.43446900      -2.25857700       0.51180435       0.99489718       0.93386742
H       -0.75931900      -2.50133800      -1.63253700       1.07276871      -0.74731536       3.86277477
H       -1.32248300      -2.68892300      -2.96095800       1.30898111       0.90870352      -2.28958553
F       -0.04811100      -0.93024400      -2.60162100       0.16862016      -0.08264812      -0.98693396
Br       0.30317200       0.74034800       1.26497400      -0.03042489      -0.02874288       0.02401822
6
Properties=species:S:1:pos:R:3:forces:R:3 charge=-1.0 dipole_moment="-1.0937039879705577 -1.6458268515616574 -0.8615957506958348" energy=-12.777840857267025 pbc="F F F"
C       -2.45872700      -2.64666900      -1.23034100      -0.50118723       1.18674469       1.64424168
H       -2.46590600      -3.46772600      -0.43397500      -0.45492948       1.43044158      -1.28453763
H       -2.85924000      -2.96265500      -2.19373700       0.92059641      -0.29153175      -0.10402016
H       -3.04892200      -1.69492100      -1.00077900       0.48096962      -1.81304233       0.31089370
Br      -0.63446500      -1.87748100      -1.10486300      -0.45133148      -0.49655873      -0.55541746
I        0.85533400       1.69277600       0.93737200       0.00579372      -0.01478076      -0.01092719
6
Properties=species:S:1:pos:R:3:forces:R:3 charge=-1.0 dipole_moment="-0.7758955014450207 -1.0345255713359927 3.3418599201527694" energy=-14.877905038484602 pbc="F F F"
C       -0.28783400      -0.81989700       1.40649600      -0.05041368       0.71241469      -0.00638302
H       -1.09644600      -0.91302200       0.67442400       0.33278716       1.61476244      -0.37150747
H       -0.39836600      -1.87452400       1.69009400       0.84337229       0.43251255       1.65085918
H        0.73588300      -0.58109200       1.00340000      -1.47958616      -0.26598630       0.29920444
F       -0.59798700       0.21533800       2.42010500       0.35772738      -2.45430996      -1.61540933
F        0.87420200       0.70555300      -3.73198200      -0.00435545      -0.03878561       0.04401420
6
Properties=species:S:1:pos:R:3:forces:R:3 charge=-1.0 dipole_moment="1.6404922161019635 -0.21770773784364875 0.1310856618920325" energy=-15.263272711197667 pbc="F F F"
C        5.14004400      -0.41754500       0.81867700       1.77990132       0.43883849      -0.71091316
H        5.72208000      -1.30095300       0.57409200       0.06487511      -0.26270249       0.13133607
H        5.37548400       0.31929000       0.03710000      -0.97429596      -0.35508171      -0.05467400
H        4.13342200      -0.70230500       0.98848200      -1.03799453       0.19883062      -0.19612839
F        5.65638800       0.15161400       1.96040600       0.14648810      -0.01289717       0.83212166
I       -1.82978800       0.05329600      -0.45576200       0.02139158      -0.00808869      -0.00256750
6
Properties=species:S:1:pos:R:3:forces:R:3 charge=-1.0 dipole_moment="0.8809493488177862 1.3632441044117238 0.6124850496456962" energy=-12.347385115960302 pbc="F F F"
C        1.42346800      -0.57826700      -0.79077900      -1.38181584       4.43089503      -3.49824785
H        1.65440900      -1.42248100      -0.25728100       0.36506274      -1.74249588       1.14444644
H        2.24036300      -0.04024600      -1.39853400      -0.64242154      -0.45647575       1.89713592
H        0.59104900      -0.64365000      -1.53974500       1.00863870      -1.01506646       1.06343766
I        0.07784400       0.77563400       0.49405300       1.47890791      -0.45493000      -0.40597053
Cl      -1.00896200      -2.09015500      -1.07321100      -0.82834831      -0.76181895      -0.20085202
6
Properties=species:S:1:pos:R:3:forces:R:3 charge=-1.0 dipole_moment="0.6852051110985897 -1.835011937755915 0.290354243664274" energy=-14.680403189379991 pbc="F F F"
C        0.51067100      -2.10212700       0.34427100      -3.51671660      -0.58568346       0.71304666
H       -0.47507200      -1.60698200       0.14958600       1.00589019       0.48209782       0.30801407
H        0.24542500      -2.65222500       1.39843300       1.73904032       0.95486613      -2.58091314
H        0.65460900      -2.63137800      -0.57718500      -0.22737810      -1.89137150       0.19723345
F        1.54599200      -1.25563000       0.27015800       1.05387161       1.14545226       1.35613155
Cl      -1.02370100       1.81200100      -0.32164000      -0.05331440      -0.10433537       0.00617065
6
Properties=species:S:1:pos:R:3:forces:R:3 charge=-1.0 dipole_moment="-0.10729597121392442 -0.02132054981361716 -3.3856546260990332" energy=-13.017538765854036 pbc="F F F"
C       -1.42462000      -0.55494900      -0.91659600       0.00990800      -0.38977773       2.11389690
H       -1.79661200      -0.65254800       0.14465800       0.78734332       0.02029372      -1.01175385
H       -1.42383000      -1.56351700      -1.37128200       0.35639709       0.86338679       0.03840457
H       -2.12662900       0.13413400      -1.37956500       0.63685407       0.14633383      -0.48700194
Br       0.46468300       0.18621900      -0.69467500      -1.69326491      -0.60602397      -0.53709938
F       -0.26323600      -0.12289300       3.60215300      -0.09609704      -0.03351485      -0.11582769
6
Properties=species:S:1:pos:R:3:forces:R:3 charge=-1.0 dipole_moment="1.2787080450241506 -0.4522507194641755 0.8935384746571" energy=-13.792223661084684 pbc="F F F"
C        2.71869500      -1.04840200       1.77702500      -0.78388982       0.98087799       0.73156838
H        1.87794800      -1.68461400       1.99230900      -0.08069356      -0.28374954      -0.15129863
H        3.46232500      -1.49261300       1.18459700       0.83665657      -0.80657826      -0.61842852
H        2.36932600      -0.15038100       1.28033300      -0.05329949       0.09719182       0.16112282
Cl       3.45068700      -0.61371600       3.36213900       0.02183638       0.03525497      -0.15380649
I       -1.56006500       0.37832400      -1.36369300       0.05990722      -0.02249253       0.03233728
6
Properties=species:S:1:pos:R:3:forces:R:3 charge=-1.0 dipole_moment="-0.1615842612456689 1.3822373328532813 -0.03143312630749216" energy=-13.065929815526054 pbc="F F F"
C        0.00900600       1.44359800       0.21123000       5.14235738       7.83412158       2.93373074
H       -0.21882400       0.67361200       0.96579100      -0.12942112      -0.46719519      -1.84952834
H        0.09958400       2.55473700       1.06065000      -0.48136865      -2.82772569      -1.13571446
H        1.13438000       1.89294800      -0.15366000      -2.59921734      -3.16674367       0.94556028
F       -0.77453900       2.04439600      -0.70976400      -1.89920874      -1.37959081      -0.99103333
Cl       0.34715700      -1.89308500       0.19104200      -0.03409592       0.00771742       0.09598957
6
Properties=species:S:1:pos:R:3:forces:R:3 charge=-1.0 dipole_moment="1.773166997157319 0.9801155705458183 -0.08248285181058593" energy=-11.418905700863323 pbc="F F F"
C        2.03794500       2.20156400      -0.64242800      -4.42056947       0.62363295       3.02781924
H        2.64787200       2.61153100      -1.41549500       1.60474182      -1.18302019      -0.35170894
H        2.23495300       2.55303900       0.45593300      -0.27265883      -0.13106816      -2.67288305
H        0.96476200       2.59117100      -1.06227900       2.26387090      -1.35440274       1.70730879
Br       1.52016400       0.15476600       0.19269500       0.87092938       2.08705355      -1.74026982
Br      -2.03659900      -0.75377000      -0.02479800      -0.04542111      -0.04271220       0.03153664
6
Properties=species:S:1:pos:R:3:forces:R:3 charge=-1.0 dipole_moment="-1.608508216318274 0.03784675409952592 0.9602449662891461" energy=-12.679459704596473 pbc="F F F"
C       -3.12668200       0.21796100       1.80430700       2.37568767       7.24691089      -4.11807197
H       -3.54697100      -0.56255100       2.20045000      -2.38782791      -4.53228032       1.86527841
H       -3.82509500       0.80659900       0.93983900       1.95172096      -2.02559184       2.47309907
H       -2.93103100       1.01293400       2.61090600       0.02512482      -1.31698342      -1.31446528
Cl      -1.47971100      -0.26308600       0.95151800      -1.94392434       0.66924998       1.07164308
Br       1.54909400       0.05450600      -0.93579600      -0.01887293      -0.04230442       0.02137307
6
Properties=species:S:1:pos:R:3:forces:R:3 charge=-1.0 dipole_moment="-1.2632994630069525 -1.3867617980036022 0.15594323218105835" energy=-14.8518929251648 pbc="F F F"
C       -2.53186500      -2.82184600       0.40014700      -1.81924486      -1.00605166      -0.10968790
H       -1.61803300      -3.18684800      -0.17311900      -1.50573377       0.00575721       0.89044663
H       -3.10494400      -2.10665500      -0.20359500       0.34945563      -0.28748895      -0.25907672
H       -3.39234600      -3.62184200       0.76488000       2.71721504       1.45942871      -1.01994436
F       -2.11859400      -2.11504400       1.49368300       0.26144419      -0.15732530       0.53192889
Br       1.21068200       1.28233800      -0.46377700      -0.00316297      -0.01368650      -0.03419670
6
Properties=species:S:1:pos:R:3:forces:R:3 charge=-1.0 dipole_moment="0.16846726922347277 -2.8910353332710637 1.6332975227471374" energy=-12.227143700680946 pbc="F F F"
C        1.61042000      -0.47730400       1.30523500      -3.12158070       2.95085995       0.56017143
H        2.25666900      -0.56556300       0.49538800       1.71799429      -1.23887227      -0.67231525
H        1.72696600      -0.91864300       2.35223200      -0.01761514       0.70400101      -2.01361667
H        1.37206800       0.66425200       1.17651700       0.72601891      -1.93964808       1.41698854
I       -0.32728100      -0.97903400       0.30040100       0.62533193      -0.40217661       0.61417077
Cl       0.13692100       3.26897600      -1.63393000       0.06951646      -0.07470906       0.09484852
6
Properties=species:S:1:pos:R:3:forces:R:3 charge=-1.0 dipole_moment="2.5091889957863542 -0.5425971446237402 -0.20821535704055458" energy=-12.106312413953013 pbc="F F F"
C        2.17664200      -0.31605100       0.76332200       4.04105971      -3.64154264      -7.80147320
H        2.67201600      -1.43840100       0.52942100      -1.30372269       3.46451189       2.01012151
H        1.38402700      -0.09358000       1.30405100      -3.38826274       0.51323388       3.10776976
H        2.76162800       0.50774300       0.33408100       0.32946324      -0.38834871       1.42203459
Cl       1.29825200      -0.44915800      -1.05874000       0.25165034       0.04562371       1.15664530
Cl      -2.46751800       0.62095400       0.66182900       0.06991550       0.00624161       0.10371625
6
Properties=species:S:1:pos:R:3:forces:R:3 charge=-1.0 dipole_moment="0.9710983908778106 1.5186221753319 0.24912604718924514" energy=-13.065688095259844 pbc="F F F"
C        0.05400000       1.43399300       0.68509600       0.80674898       4.09393908      -4.60505128
H       -0.70800700       1.75654400      -0.09760400       0.79143138      -1.72423076       0.53895057
H        0.21853000       2.53182000       0.97255200       0.67430785      -2.21834797       1.27125994
H       -0.17726600       0.54410400       1.14130400      -1.07331841      -1.34973156       1.94286711
Cl       1.60654900       0.80684600      -0.27078400      -1.19549364       1.06899587       0.71322150
Cl      -1.58638800      -1.59722400      -0.08961700      -0.00329153       0.12875417       0.13826468
6
Properties=species:S:1:pos:R:3:forces:R:3 charge=-1.0 dipole_moment="-2.3634430084528613 2.5828610470410522 2.6097432493376953" energy=-12.977273473314535 pbc="F F F"
C       -1.48971100       0.35110100      -0.10901400      -0.89251071       1.16561536       0.99756085
H       -0.60095000       0.12582600      -0.68986200      -0.32543021      -0.84681500       0.16337819
H       -1.98684100       1.20826000      -0.57590500       0.04389953      -0.38129617       0.04121170
H       -2.29402700      -0.41889800       0.16889200       1.95602858       0.94297632      -0.28673562
Br      -0.69223700       1.30084700       1.55201800      -0.72050286      -0.92785258      -0.94000773
Cl       2.23814000      -2.85596800      -3.09233400      -0.06125808       0.04790583       0.02477104
6
Properties=species:S:1:pos:R:3:forces:R:3 charge=-1.0 dipole_moment="0.0550926393918015 0.733026855617244 0.4951775747851143" energy=-14.317908330835655 pbc="F F F"
C        0.03607400       1.89246200       1.22052700      -2.75650665       1.46617992      -1.84901515
H        0.68692500       1.14374100       0.86876900       1.40029231      -0.81565220       0.18687705
H        0.06074500       2.14757900       2.35611800       0.48730019       0.41075844      -2.38491279
H       -0.00255800       2.68373700       0.21273600       0.51066483      -1.28748258       3.71790133
F       -1.22559100       1.25972500       1.06335600       0.05384662       0.63751433       0.66838197
Br       0.28767900      -0.81906700      -0.58088500       0.30405560      -0.41138888      -0.33970497
6
Properties=species:S:1:pos:R:3:forces:R:3 charge=-1.0 dipole_moment="0.1489792600900382 -1.1513573158842774 -1.973735743505226" energy=-12.912526711284526 pbc="F F F"
C       -0.25572600      -1.46274800      -2.53963500      -7.02644546       3.91811006       2.61342320
H       -0.83218600      -0.55770900      -3.05241800       0.82399800      -2.32583192       0.19266974
H       -0.01075000      -0.87158800      -1.69606200       1.20480720       0.16335299       1.22755581
H       -1.03471000      -2.16007800      -2.08157000       1.11200683       0.45699357      -1.24200079
Cl       0.96846600      -2.05408900      -3.37233000       3.89387895      -2.18024062      -2.72686285
Br      -0.37291200       1.35101100       2.26849900      -0.00711990      -0.03339915      -0.06546646
6
Properties=species:S:1:pos:R:3:forces:R:3 charge=-1.0 dipole_moment="-1.2778730033858805 0.3480186842994158 -1.9766673852517498" energy=-12.575222034388334 pbc="F F F"
C       -1.37359200       0.38144100      -0.33416900       1.92485138      -3.27781842       4.36008890
H       -1.89746500      -0.58447200       0.18876000       1.83422873       2.63707787      -1.12607385
H       -2.08560900       0.90505100      -0.77186000      -3.19153733       1.23763042      -4.65473528
H       -1.27366100       1.25364700       0.33986600       1.52661473      -1.39505857       1.07354055
Cl       0.22218300      -0.09556200      -1.11481700      -1.95555344       0.75409690       0.37427552
F        1.08013100      -0.24870200       2.35557200      -0.13788673       0.04363214      -0.02748767
6
Properties=species:S:1:pos:R:3:forces:R:3 charge=-1.0 dipole_moment="-1.1101973832694112 -1.3317003800672238 0.27178171110511484" energy=-11.904282026604214 pbc="F F F"
C       -1.80200600      -0.07167600      -1.02187200      -2.14089709       2.10241332       2.01541130
H       -2.58971100       0.44025500      -0.30404100       1.21836720      -1.70566585      -0.89252356
H       -2.40657100      -0.80080400      -1.67249900       1.58537112       1.20055923       0.76008140
H       -1.41275900       0.98477600      -1.36975200       0.65001298      -2.91784030      -0.04758187
I       -0.46473400      -1.24640400       0.51810100      -1.30013909       1.07306284      -1.73687493
Br       1.19577000       1.88186300      -0.51376600      -0.01182759       0.24792121      -0.09708332
6
Properties=species:S:1:pos:R:3:forces:R:3 charge=-1.0 dipole_moment="0.5641293653215829 3.280517697904209 -2.416535357988731" energy=-13.125276483825527 pbc="F F F"
C        0.66836300       1.95991300      -1.22656000       4.58609916      -4.20828993      -4.45598951
H        1.27800000       1.30527700      -0.60292900       1.12626822       1.73131981       0.81637519
H        0.63941600       3.04910000      -1.15259100      -0.31096775      -0.44906737      -0.02056934
H        0.98588600       1.30738200      -2.37583700       1.01003121       3.63622766       2.23729443
F       -0.39187400       1.21336300      -1.24480000      -6.43052849      -0.71069719       1.41254156
F       -0.37629000      -3.14905500       2.52154600       0.01731792      -0.00083304       0.00994863
6
Properties=species:S:1:pos:R:3:forces:R:3 charge=-1.0 dipole_moment="0.27635274384996533 2.0330326958349576 0.33511363966539537" energy=-12.940544222440483 pbc="F F F"
C       -0.26200400       1.29017800      -0.82087300       0.70584603       1.08668455      -2.04795478
H        0.63792200       0.80053000      -1.31788400      -1.45782332       0.37894464       0.98788476
H       -0.61428800       2.13300600      -1.53524300       0.33235316      -1.57791801       1.31225516
H       -1.05374500       0.57909600      -0.53980400       0.65253009       0.32965556      -0.03415608
I        0.50431300       2.37501700       0.89162200      -0.20590064      -0.27932055      -0.18780419
I       -0.45521600      -2.58735100      -0.73467600      -0.02665309       0.06230503      -0.02985257
6
Properties=species:S:1:pos:R:3:forces:R:3 charge=-1.0 dipole_moment="1.7508457732385256 1.4454036289466552 1.2027928115738722" energy=-12.292098911166713 pbc="F F F"
C        2.48936600       0.38030900       0.04116400      -0.68357308      -2.43155723      -2.76564949
H        3.25104300       0.18057200       0.75071800       0.27106011      -0.34496545       0.90527469
H        3.03133300       0.69318800      -0.89026900      -1.07576558       1.41189107       0.92480685
H        2.03941600      -0.56258700      -0.42689800       0.81127258       0.77772637       1.29586232
I        0.71273600       1.11670000       0.97441900       0.58026512       0.56873732      -0.37465604
Br      -1.74380100      -1.76509000      -1.46642200       0.09550415       0.01929922       0.01371272
6
Properties=species:S:1:pos:R:3:forces:R:3 charge=-1.0 dipole_moment="-1.3335424459371967 2.197926960532703 2.5698009534843367" energy=-12.98187097716033 pbc="F F F"
C        0.26184000       0.05275700       1.21447800       0.16684198       5.31108243       4.06923077
H       -0.29374600      -0.38796100       1.99371200      -0.64134065      -1.12865010       0.24196654
H        1.18607500       0.56206600       1.80777000      -2.33994419      -0.61271553      -1.90350763
H        0.59497100      -0.46583600       0.42826900       0.70393313      -2.04251124      -3.17917753
Cl      -1.11487700       1.41971000       0.64892800       2.14106215      -1.61544378       0.60509272
F        1.76606400      -2.68443200      -2.50537800      -0.03132478       0.08885528       0.16596061
6
Properties=species:S:1:pos:R:3:forces:R:3 charge=-1.0 dipole_moment="-1.5995122037386889 -2.237234243733385 -2.405983564410088" energy=-13.2670050893633 pbc="F F F"
C       -1.43352700      -1.78129100      -2.36231100       0.12999293      -1.62687645      -1.96992437
H       -1.76216300      -2.86834500      -2.16643100      -0.05557543       1.90462091      -0.63106703
H       -0.62408200      -1.85122300      -3.20078200      -1.60786571       0.40983953       1.45694040
H       -2.24210900      -1.04212300      -2.60412300       0.62703194      -1.26920769      -0.21249346
Cl      -0.73456600      -1.22580200      -0.89863100       0.90830345       0.58328308       1.35680106
Cl       1.51277300       2.19341600       2.20129000      -0.00123721      -0.00157609       0.00044686
6
Properties=species:S:1:pos:R:3:forces:R:3 charge=-1.0 dipole_moment="-0.9937228333382571 -0.9653160714979795 -3.276352014902651" energy=-11.646024541612213 pbc="F F F"
C       -0.31221900      -0.24095700      -1.60408500       6.86300710      -7.15788180      -4.73589936
H       -0.74913100       0.25640800      -0.94800600      -5.53250174       4.24068120       5.13910699
H        0.69447700       0.30565000      -1.65802300      -1.34414198      -1.11246551      -0.98405330
H       -0.10299700      -1.34291800      -1.22141400      -0.18343280       2.77920846      -0.22214230
I       -1.16573800      -1.06443000      -3.50019300       0.21382632       1.26070556       0.86815002
I        1.20405800       1.10644200       3.75400400      -0.01669109      -0.01034355      -0.06535179
6
Properties=species:S:1:pos:R:3:forces:R:3 charge=-1.0 dipole_moment="-0.5227016690381714 0.5028490568066585 -0.09998856311324834" energy=-15.232201975954805 pbc="F F F"
C       -1.63094600       2.34616300      -0.10383600       2.94639291      -0.96284632      -2.03874663
H       -1.68695900       2.80380200      -1.10254500      -0.37596936      -0.47258165       0.03823796
H       -2.57196700       2.34947900       0.35108300      -1.30509463      -0.22461673       0.97152637
H       -1.03833100       1.39007400      -0.14125800      -1.67175248       0.26809820      -0.26466989
F       -0.72695200       3.13311600       0.55697300       0.34621038       1.53360350       1.31269173
I        0.40802800      -0.92110100      -0.06598100       0.06094698      -0.14130218      -0.01871043
6
Properties=species:S:1:pos:R:3:forces:R:3 charge=-1.0 dipole_moment="-0.5824759392118312 1.5833881741328086 1.0132473556992205" energy=-14.436037112777218 pbc="F F F"
C       -0.57322600       0.21881900      -0.34523400      -0.69937611       0.33304222      -1.25528773
H       -0.21043400      -0.79366500      -0.34743400       0.42667512      -0.65937180      -0.47932771
H       -0.18772000       0.75828500      -1.23570100      -0.29072854      -0.53606939       0.67184370
H       -1.67665800       0.23629400      -0.34030400       0.53943342       0.11554436       0.04950094
Cl       0.01907700       1.05305600       1.08866100       0.18905991       0.56823132       0.81881774
F        0.57665000      -2.15730800      -1.61248900      -0.16477430       0.17921156       0.19535706
6
Properties=species:S:1:pos:R:3:forces:R:3 charge=-1.0 dipole_moment="2.2922067598983884 -1.5898002143932104 0.23141501512888393" energy=-12.115986624101835 pbc="F F F"
C        3.12449900      -0.93584500       0.43531900       1.65424790       3.34575674       0.05463029
H        3.38100000       0.08699900      -0.16010800      -0.25604230      -2.78540430       1.24810767
H        3.99984900      -1.64868300       0.42124300      -1.66635728      -0.06940179      -1.12917306
H        3.21410100      -0.62070700       1.48577900      -0.59643890       0.07858526      -0.23396423
I        0.99324200      -1.07777500       0.03437600       0.79516925      -0.45803126       0.06237651
Br      -2.34239400       1.85484400      -0.17659300       0.06887677      -0.11108709      -0.00231399
6
Properties=species:S:1:pos:R:3:forces:R:3 charge=-1.0 dipole_moment="-0.17899948324532491 2.07953943498536 -1.8373350257102903" energy=-14.85126002135041 pbc="F F F"
C       -0.36597900       0.82896600      -1.13359300      -4.83724711       1.65506859       1.41311286
H       -0.90282100       1.13382500      -2.02381700       0.42387776       1.77073174      -0.52338511
H       -1.21061700       0.74463000      -0.40958100       0.80354127      -0.41363757      -0.26545048
H       -0.12968900      -0.08625600      -1.46143100       2.36802218      -3.65673735      -0.02187598
F        0.53591500       1.64613900      -0.57764700       1.28342795       0.57503549      -0.48895187
F       -0.04269300      -2.39791600       1.76613500      -0.04107646       0.07101747      -0.11309409
6
Properties=species:S:1:pos:R:3:forces:R:3 charge=-1.0 dipole_moment="-0.2498346154741901 -0.6212297030502634 -0.5921794617219404" energy=-13.743791759458684 pbc="F F F"
C       -0.93711600      -2.70906200      -1.24794500      -3.87745063       0.67016632       5.45682080
H       -1.40592800      -1.64482100      -0.79506700       2.08269399      -2.50504142      -2.38804799
H       -1.69172500      -3.31071700      -1.86660300       1.73062767       0.96754630       0.62119297
H        0.09028900      -2.95424800      -1.11240600       0.88245152       0.84626427      -1.91079002
F       -1.04798800      -3.36739800       0.22801200      -0.76751292       0.04804621      -1.70786157
I        0.34079200       1.02775000       0.17376700      -0.05084974      -0.02668497      -0.07063798
6
Properties=species:S:1:pos:R:3:forces:R:3 charge=-1.0 dipole_moment="2.961873640563192 3.375796054666229 -0.7730749869127156" energy=-12.732146559007877 pbc="F F F"
C       -0.80129400       0.13305300      -0.18922700       3.48418649      -0.66833466      -2.16920648
H       -0.83677800      -0.88917300       0.05090800       1.06289927      -1.79992816      -0.35160250
H       -0.95029500       0.30229600      -1.23348600      -1.04234278       0.34469806      -0.01510163
H       -1.36834000       0.43110400       0.58350800      -2.01876351       2.79508091       2.09341189
Br       1.14448400       0.94013600      -0.15530500      -1.59775253      -0.82154723       0.47443953
F       -3.56597500      -3.72747800       0.79667900       0.11158846       0.14975906      -0.03182717
6
Properties=species:S:1:pos:R:3:forces:R:3 charge=-1.0 dipole_moment="0.42350052161424206 0.5315267573787446 1.7407337259218612" energy=-13.228253986518686 pbc="F F F"
C        0.59972100       0.83178400       2.04320500       1.47287713      -3.02931305       2.84011584
H        0.84364700      -0.22347100       1.90034500       0.30317834       0.80256888      -1.24405304
H        1.00681600       1.62274600       1.50003100       1.54239719       0.92827887      -0.31779866
H       -0.39756100       0.92184000       2.05753300      -3.64981542       0.28606764      -0.34563908
Cl       0.86360600       0.69753300       3.94511900       0.30092399       0.96539223      -1.04645295
Br      -0.56378600      -0.54771100      -2.42240500       0.03062236       0.04681054       0.11475606
6
Properties=species:S:1:pos:R:3:forces:R:3 charge=-1.0 dipole_moment="0.882096075833078 1.746967433462303 -0.6536693244122481" energy=-13.097321606758515 pbc="F F F"
C       -0.27344500      -0.20488200      -1.63018800       0.49613450      -0.51315366      -0.76517013
H        0.10695600      -1.23968400      -1.62662700      -0.41059029       0.59527419       0.48604241
H        0.10268900       0.29062000      -2.53478900      -0.05585259       0.24286951       0.42695125
H       -1.35694800      -0.20109600      -1.61346500       0.11427680      -0.09010329       0.26633700
I        0.44356800       0.79813200       0.11741100      -0.03827653      -0.03139009      -0.41732350
Cl      -1.21888900      -2.34832700       0.54901300      -0.10551705      -0.20328634       0.00419296
6
Properties=species:S:1:pos:R:3:forces:R:3 charge=-1.0 dipole_moment="0.10079132494167371 1.6088881655554592 0.28127303355378785" energy=-12.364526129743433 pbc="F F F"
C       -0.04883400       3.62771300       0.90074600       2.02629787       0.98092889       3.45803168
H       -0.48028500       4.33116800       0.32449500      -2.59678302       1.38310757      -2.57857344
H        0.55126600       4.55103000       1.49931900      -2.12347837      -3.10356600       0.40681489
H       -0.70573900       2.75526100       1.26761300       1.19950662       1.99322371       0.08703802
Cl       1.30365700       3.04079100       0.04122800       1.53715882      -1.28507962      -1.40436802
I       -0.40064900      -1.60560700      -0.17352400      -0.04175009       0.03073291       0.03100956
6
Properties=species:S:1:pos:R:3:forces:R:3 charge=-1.0 dipole_moment="1.474996806093017 -0.5858362144989117 3.3937563291927653" energy=-11.368124537242489 pbc="F F F"
C        0.83606700      -1.09638200       1.41330400       0.93033369      -5.47401634      -0.81273657
H        1.63940800      -1.66073200       1.03115700       2.59002925       1.01304455      -2.13127807
H        0.50139200      -2.14061300       1.44818300      -2.65320948       0.68599969       1.30213118
H        1.25367300      -0.67279700       2.19551700       1.35997124       0.97946182       4.67391211
Br       0.11539300       0.21710300       0.51493900      -2.25030165       2.78470805      -3.09902235
F       -1.38329400       0.38376000      -3.46417300       0.02390869       0.01041965       0.06709448
6
Properties=species:S:1:pos:R:3:forces:R:3 charge=-1.0 dipole_moment="-0.48612811530726213 -0.5924509296309596 0.31000047678366716" energy=-15.413444092363674 pbc="F F F"
C       -1.62421200      -1.95768000       1.59542500      -0.13372720      -0.74496794      -1.70252756
H       -1.25946800      -3.00343100       1.59961700      -0.15243815       0.46834036       0.00350750
H       -1.25909800      -1.44157200       0.68137500      -0.13121112      -0.24255943       0.65704855
H       -2.71960100      -1.96535800       1.60018600       0.10682986       0.02001244       0.05988563
F       -1.17060500      -1.32561700       2.70044300       0.32662114       0.51744021       1.04717492
I        0.48148800       0.56767900      -0.71241000      -0.01543896      -0.01747013      -0.06379422
6
Properties=species:S:1:pos:R:3:forces:R:3 charge=-1.0 dipole_moment="-0.5434120775280085 -0.6842049661706241 1.476224497221525" energy=-14.811683030544701 pbc="F F F"
C       -1.06685300      -1.34212800       3.12828100       0.70694698      -1.88534690      -1.37416630
H       -1.19723300      -0.82366500       2.08183600      -0.70436353      -1.35367460       2.18387925
H       -1.91732500      -1.59225600       3.85993200       0.83015322       1.29535067      -1.42386830
H       -0.63832200      -2.45347600       2.94828600      -0.42021033       2.67732489       0.21186817
F       -0.11543600      -0.52112100       3.73677400      -0.36707385      -0.69741076       0.35290502
Br       0.31979800       0.50320700      -1.75116300      -0.04592145      -0.03598568       0.04894352
6
Properties=species:S:1:pos:R:3:forces:R:3 charge=-1.0 dipole_moment="2.867764765436519 1.1638935240025348 1.3211914498426367" energy=-13.52356134224309 pbc="F F F"
C        0.57510400       0.46703100      -0.35545100      -1.65975983      -1.18856966      -2.25638436
H       -0.46650200       0.96865100      -0.32460400       1.50853216      -1.67192166       0.54097094
H        0.62577800      -0.61949800      -0.75838300      -1.01661272       1.97129168       0.80741027
H        1.03504800       1.03566900      -1.17132100       0.85297125       0.20067565       0.77674061
Cl       1.42302000       0.39167200       1.18937400       0.16143341       0.59261104       0.09945439
F       -3.20403300      -1.20504800      -1.75915000       0.15412376       0.09514728       0.03325979
6
Properties=species:S:1:pos:R:3:forces:R:3 charge=-1.0 dipole_moment="-1.227611751926527 3.034196819108163 2.1263631512848913" energy=-12.40293267038086 pbc="F F F"
C       -0.66248300       1.29308000       1.93318000      -2.36537601      -1.80880103       0.64719557
H       -1.64642900       0.77944400       2.39183900       2.20728709       0.97502358      -1.42342812
H       -0.84765200       2.38367600       2.01430800       0.77755925      -0.75958981      -0.55374059
H        0.17253600       0.84458200       2.45167800       0.05092790       0.82728079       0.66528071
I       -0.10038900       0.32349000       0.00337600      -0.60864547       0.58165197       0.59946972
F        1.29078200      -3.21235300      -2.07064600      -0.06145451       0.18494975       0.06517798
6
Properties=species:S:1:pos:R:3:forces:R:3 charge=-1.0 dipole_moment="1.164195155012556 -1.949986270295121 -1.88279663986983" energy=-12.041267169126025 pbc="F F F"
C       -0.65638000      -1.40120600       0.43327600       4.97672535       1.42249687       0.08543468
H       -0.51921700      -0.95208700       1.34329500       0.25027840       1.91704037       2.47309289
H       -0.05780400      -2.26202300       0.64055700      -0.94019490      -1.48090874      -1.55691981
H       -1.46834600      -0.91657300       0.10470200      -3.86063459      -0.39412289      -1.71306600
Br       0.57427300      -0.12338800      -0.76121500      -0.43991836      -1.16619952       0.79589533
F       -1.56843400       1.87294500       2.43937000       0.01357543      -0.29876735      -0.08433733
6
Properties=species:S:1:pos:R:3:forces:R:3 charge=-1.0 dipole_moment="-0.1714481244505789 -1.349005004029872 0.8345865458686564" energy=-14.344802988702769 pbc="F F F"
C       -0.36326400      -2.85225100       1.74967500      -0.71909544      -2.85616261      -0.88469095
H       -1.20032500      -3.52313800       2.28018200       2.93623500       1.19017557       0.08491480
H       -0.12444700      -1.89159500       2.09006900       1.05686952       0.71669197       2.23692368
H        0.61888500      -3.41864000       1.33534300      -2.48436358       1.04398880       1.13941119
F       -1.15127700      -2.42423100       0.73236100      -0.83092095      -0.09354908      -2.62902363
Br       0.37848500       1.36471300      -0.65128300       0.04161948      -0.00175195       0.05214866
6
Properties=species:S:1:pos:R:3:forces:R:3 charge=-1.0 dipole_moment="-1.2241721000578618 0.29566718285833493 0.40361933381335857" energy=-13.270735824171094 pbc="F F F"
C       -2.00409700       0.53285800       0.18138600      -3.15994824      -3.49038593       3.80313032
H       -1.72940700      -0.52002700      -0.08613100       0.24400902       1.74097790      -0.43511553
H       -1.60063200       1.39220100      -0.22929100       1.33492817       1.10953908      -0.64586065
H       -3.13336600       0.59414000       0.35060300       1.54229897       0.08715115      -1.01877554
Cl      -1.68172100       0.39219400       2.12994500       0.14130064       0.53693637      -1.64566761
Br       1.34506400      -0.32373600      -1.06664500      -0.10214891       0.01547084      -0.05653034
6
Properties=species:S:1:pos:R:3:forces:R:3 charge=-1.0 dipole_moment="-2.3981681461872713 2.978127847762871 1.6399847351570325" energy=-12.028787009046534 pbc="F F F"
C       -0.67283400       1.16149900       1.90610900      -0.41249497       8.79678587      -6.21582131
H       -0.65692300       0.37534200       2.38799900       0.39072235      -7.20898711       5.47268451
H       -1.68492500       1.59035600       1.77169700       0.66385426      -0.31495348       0.48833634
H        0.05786700       2.00664100       2.11341400      -0.82701031      -1.59663616      -0.11020829
I       -0.30286500       0.31071900      -0.08643400       0.25502106       0.25256462       0.36174190
F        2.48586800      -3.04549300      -1.45875400      -0.07100050       0.07079842       0.00256648
6
Properties=species:S:1:pos:R:3:forces:R:3 charge=-1.0 dipole_moment="1.8782674121246141 -0.0448906319493412 1.3332551027118604" energy=-13.169670261978887 pbc="F F F"
C        2.10850300      -0.51841500       0.94292300      -0.05409293      -0.18661068      -1.37916452
H        2.89354800      -1.17541300       0.45338800      -1.34990794       0.69393565       0.86658370
H        1.69404400       0.21093000       0.23666500       0.57672368      -0.06270870       0.12580460
H        1.22883600      -0.95774500       1.37039200      -0.08961992      -1.13824802      -0.36627733
Br       2.80771400       0.35538200       2.47090400       0.83200802       0.70351610       0.70858991
I       -2.20259300      -0.13973000      -1.77735100       0.08443709      -0.00981030       0.04387742
6
Properties=species:S:1:pos:R:3:forces:R:3 charge=-1.0 dipole_moment="-1.9245645970996337 0.4701263256370221 -3.534607427328543" energy=-12.419863112305604 pbc="F F F"
C       -1.82931400       0.68215700      -1.80937400      -3.28787503      -3.28696486       0.85801524
H       -2.07728400       1.68808600      -1.66884600      -0.44063724       2.39586415      -2.83384029
H       -1.61052200       0.79544000      -0.75303600       1.39586641      -2.42887197       0.62383401
H       -2.81647900      -0.00707000      -1.94096600       2.30578451       2.14727651       0.67115362
Cl      -0.70437600      -0.08176400      -2.96228900       0.05023473       1.15635733       0.68595701
Cl       1.73262100      -0.30467100       3.85753000      -0.02225547       0.01497308      -0.00655888
6
Properties=species:S:1:pos:R:3:forces:R:3 charge=-1.0 dipole_moment="-1.9345184204303398 -2.142500939498246 3.4732652050799824" energy=-12.655168956946525 pbc="F F F"
C       -1.55680800      -0.39840500       1.71663700       2.09291824      -3.84489583      -1.88786863
H       -2.16642400      -1.08566900       1.16038900      -1.18831101       0.15558518       0.16635450
H       -1.64835200       0.56410800       1.29926800      -0.28536933       1.48891670       1.15357489
H       -1.26902600      -0.94127000       2.61883800      -1.03416308       1.90761214       0.86700382
Cl       0.00664600      -0.98569500       0.87528900       0.42789279       0.26509875      -0.28387244
F        1.59018500       2.29000900      -3.36202500      -0.01280050       0.02704646      -0.01641701
6
Properties=species:S:1:pos:R:3:forces:R:3 charge=-1.0 dipole_moment="-1.5808512985853653 -0.739947435176998 -1.0610865630658235" energy=-12.85189906553404 pbc="F F F"
C       -1.12776300      -1.24012300      -1.75279100       0.44352253      -1.94051403       1.65450295
H       -0.34633500      -1.39493800      -2.48155700       0.19927234       0.41018817      -0.08720874
H       -2.00924700      -0.84123000      -2.14838600      -1.23746896       0.38610825      -0.78377515
H       -1.30048200      -2.22606500      -1.24878800      -0.18144791       0.79938123      -0.80709865
I       -0.48037300      -0.04872100      -0.09272600       0.55882006       0.07145199      -0.38334174
Cl       2.11073100       0.85207000       1.25352700       0.21894539       0.27371863       0.40830098
6
Properties=species:S:1:pos:R:3:forces:R:3 charge=-1.0 dipole_moment="0.5419039224779015 -1.2340571303511945 -0.48836177231305206" energy=-14.86228320223189 pbc="F F F"
C        0.48179500      -1.45788200      -0.79951500      -3.26912758       0.28031660      -0.53180805
H        0.81111900      -2.49794100      -0.86100500       0.46376585       0.13845443      -0.16376643
H        0.72876900      -0.82236400      -1.67643400       0.12991631      -0.58290307       0.60690638
H       -0.70465900      -1.50161500      -0.77786000       2.42039093       0.29415068       0.05550498
F        0.92018200      -0.88194400       0.34591800       0.84934394      -0.82355320       0.15032727
Cl      -0.70633100       1.26510000       0.29406600      -0.59367394       0.69414186      -0.11580250
6
Properties=species:S:1:pos:R:3:forces:R:3 charge=-1.0 dipole_moment="3.5594417138203043 1.5435834643541964 0.5739456025775421" energy=-13.319937319612288 pbc="F F F"
C        0.96061600      -0.01603500      -0.88110400      -1.16976975      -0.00837203       1.16416783
H        1.25806600      -1.03062800      -0.78633400       0.62966784      -0.69341578      -0.10647967
H        1.27587400       0.44535200      -1.78954300       0.26858826       0.37822062      -0.29860640
H       -0.12297600      -0.03762000      -0.75526800       0.12301701       0.33291263      -0.25979148
Br       1.65481500       0.91274200       0.70697700       0.03587306      -0.05187767      -0.48684253
Cl      -3.88783400      -1.83687400      -0.94861200       0.11208417       0.04216712      -0.01296196
6
Properties=species:S:1:pos:R:3:forces:R:3 charge=-1.0 dipole_moment="0.9858126923947487 -0.34411176895382295 -2.014861279601406" energy=-12.494941589028008 pbc="F F F"
C        1.00213500       0.18318400      -0.64357000      -8.47300837      -0.65915839      -2.98926606
H        1.89204200       0.13881700      -0.27848300       5.16757836      -0.38854720       2.53531874
H        0.15040200      -0.51205400      -0.34995000       1.91200050       0.92458059       0.89953188
H        0.47869100       1.13968800      -0.72813100       0.83323598      -0.01024276       0.20825577
I        1.01000400      -0.59907800      -2.66471500       0.48994123       0.13723984      -0.53939897
I       -1.17102200       0.56387800       2.76316700       0.07024203      -0.00408600      -0.11506407
6
Properties=species:S:1:pos:R:3:forces:R:3 charge=-1.0 dipole_moment="-1.0947967389103717 -3.997646482584484 0.26935225853141626" energy=-11.723504581257123 pbc="F F F"
C       -1.62163000      -1.22219100       1.03282000       4.84264283       0.03429698       0.70281367
H       -2.57878900      -1.39577800       1.49027300       0.44230485      -0.84739350       0.93944363
H       -1.78587600      -0.75690800       0.15458600      -0.89081584       2.04080249      -2.68728123
H       -0.61532200      -0.68973600       1.42676400      -3.34039342      -1.08197069       0.21673630
I       -0.31633000      -2.74214000      -0.09862200      -1.02936437      -0.11344376       0.81221669
Br       0.89929300       4.44311400      -0.11547400      -0.02425168      -0.03252754       0.01621286
6
Properties=species:S:1:pos:R:3:forces:R:3 charge=-1.0 dipole_moment="-0.20042586850105482 0.3823675770371147 1.6518478298634527" energy=-13.890352065261839 pbc="F F F"
C       -0.01329300       0.45983100       1.85733900      -0.74728553      -6.87335065      -2.18765466
H        0.79647000       0.58439700       0.90983600      -2.84976982      -1.05362890       2.40741920
H       -0.00162800      -0.41343200       2.68494000       1.64508500       1.69269618      -2.26435427
H       -0.12098500       1.24869700       2.43190800      -0.70929440       4.47740783       2.13393505
F       -1.46190500       0.00628200       1.50504500       2.51424906       1.63670732      -0.27497745
Cl       0.73900300      -0.24912800      -1.80683000       0.14712830       0.12035335       0.18468235
6
Properties=species:S:1:pos:R:3:forces:R:3 charge=-1.0 dipole_moment="0.017965566298642408 -0.7038480242267537 1.197856117376522" energy=-11.651632825565308 pbc="F F F"
C        1.08844200      -0.03426400       1.14951900      -2.75439371       5.03121886       0.91777128
H        1.37837300      -0.72075200       0.56018500       3.16620939      -5.46325216      -3.17442047
H        1.71983300       0.45864300       1.86718300      -0.30070391      -1.08523290       1.41497074
H        1.06781400       0.76194600       0.31477700      -1.94865774      -0.62903123       1.16627716
Br      -0.74383900      -1.24700700       1.51297700       1.76406744       1.91892859       0.16001622
Br       0.43821900       1.23860000      -1.78838500       0.07320137       0.22742592      -0.48405906
6
Properties=species:S:1:pos:R:3:forces:R:3 charge=-1.0 dipole_moment="1.7688367400432752 0.5207564136121388 -5.2166654549658755" energy=-11.9515887622776 pbc="F F F"
C        1.88750400       0.39264400      -0.21316200       1.58825642      -2.13186737      -5.33215880
H        2.48783200       0.70215000      -1.23059100      -1.47079247      -0.20665860       2.82599534
H        2.01003800      -0.71228700      -0.26068100       1.29092117       1.07336777       1.41450639
H        2.13293100       0.97392900       0.62614500      -0.23825181       0.40279728       1.09401630
I       -0.08664100       0.02486500      -0.87830300      -1.18997554       0.85881280      -0.00862914
F       -1.48487300      -0.51527700       5.41046500       0.01911153       0.00409628       0.00708648
6
Properties=species:S:1:pos:R:3:forces:R:3 charge=-1.0 dipole_moment="-3.146080227560465 0.8256752016427613 -1.6582720411996978" energy=-11.774843501709723 pbc="F F F"
C       -1.64973300      -0.60455300       0.42545500      -0.61333773       0.14318783      -8.85436316
H       -0.92393400      -0.94268500       0.92577700       6.52138717      -1.51974628       3.93926407
H       -1.69381700      -1.34638100      -0.40765600      -1.83898630       0.18319523       1.44946929
H       -2.31832100      -0.16408300       0.99735300      -3.90350156       1.64762885       1.80991021
Br      -1.12159500       0.76210300      -1.13296900      -0.05761431      -0.42664478       1.65310479
Cl       3.18178200      -1.21136100       2.09327700      -0.10788915      -0.02806411       0.00296191
6
Properties=species:S:1:pos:R:3:forces:R:3 charge=-1.0 dipole_moment="0.1295002469691832 1.0634503976654122 -1.8498606502843364" energy=-12.652911736577376 pbc="F F F"
C       -0.93325900      -0.08677300      -1.75899900       0.69931029       3.30098046      -0.81800785
H       -0.98171000       0.61742300      -2.65933500      -0.23615224      -0.28199450       1.61473107
H       -1.92856000      -0.25961600      -1.35205100       0.64137356      -0.17726626       0.40688790
H       -0.41703100      -0.86077600      -2.21894900       0.55724294      -2.12157113       0.07866548
Br       0.44837800       0.71394500      -0.44336000      -1.47473500      -0.41877566      -1.50513419
Cl      -0.39802200      -1.40967500       1.90011400      -0.18467721      -0.30112300       0.22281079
6
Properties=species:S:1:pos:R:3:forces:R:3 charge=-1.0 dipole_moment="-0.3834259314582424 -0.5532336065560733 -0.893118837129123" energy=-14.69679808260462 pbc="F F F"
C       -0.28809500      -0.55154300      -0.85487400       0.24947364       0.55037501       2.16475384
H        0.67783200      -0.41942100      -1.44151700      -0.54291573       0.74247911       2.36335923
H       -0.23801800      -1.21701500       0.19919800       0.04306084       1.52372481      -3.41974744
H       -0.96304200       0.33012200      -0.59223800       2.03173678      -0.78771716      -0.06832553
F       -0.96406600      -1.08251400      -1.91544200      -2.06887637      -2.33624078      -1.59117051
Cl       0.64284700       0.84460000       1.42369300       0.28693411       0.30704271       0.55032873
6
Properties=species:S:1:pos:R:3:forces:R:3 charge=-1.0 dipole_moment="0.5550560928692553 0.7787996259765952 -0.26442350199222464" energy=-10.962056451612073 pbc="F F F"
C        0.95090600       1.55560100       1.11420300      -7.37351356      -4.51965877      -2.10441364
H        1.39479900       2.38240000       1.02450200       4.47665655       6.10380039      -0.19394912
H        1.15965100       0.72901300       1.71713800       0.69152756      -0.79471982       0.88375044
H       -0.17496200       1.81418400       1.13908500       1.85882545      -0.59863874       0.83323546
I        0.71936100       0.79645500      -0.94792200       2.22154026       2.05915040      -1.21677775
I       -0.87190700      -1.06549600       0.74856500      -1.87492827      -2.25128844       1.79733906
6
Properties=species:S:1:pos:R:3:forces:R:3 charge=-1.0 dipole_moment="1.2747222822741835 2.4790301282018996 0.6711046551459056" energy=-12.722262669239152 pbc="F F F"
C        0.83604900       1.39315700      -0.49448700      -3.20115737       1.68195874       0.71949191
H        1.50606800       1.78493300      -1.20191700       0.31606779       0.16348566      -1.28427641
H       -0.28556400       1.69012200      -0.61537600       2.33661050      -0.58684406      -0.33227757
H        0.87228200       0.33967000      -0.37821000       0.40795903      -0.80147205       0.71022308
I        1.36709900       2.69827100       1.16428800       0.07548091      -0.55804410       0.18443193
I       -1.50123300      -2.92796300      -1.06688400       0.06489928       0.10112869       0.00273874
6
Properties=species:S:1:pos:R:3:forces:R:3 charge=-1.0 dipole_moment="1.816194396148265 1.757021800463016 -0.017087132129106432" energy=-13.593498166908205 pbc="F F F"
C       -0.91595900      -0.08749400      -0.14578900       1.49128520      -0.93089419      -2.69820688
H       -1.44419500      -0.07701200       0.78036300      -0.67418907       0.81443195      -0.02178650
H       -0.82048900      -1.12626200      -0.42413800       0.11385051      -0.58155684       0.61837401
H       -1.12600100       0.31433700      -1.17184200      -1.03382780       0.48153063       1.80771911
Br       0.94026200       0.64788300       0.06188400      -0.15352932      -0.07480831       0.33839114
F       -2.66919200      -2.36244500      -0.05284300       0.25693653       0.29171636      -0.04440553
6
Properties=species:S:1:pos:R:3:forces:R:3 charge=-1.0 dipole_moment="1.2066192919834593 2.3773603690906904 0.3566707316921346" energy=-13.107056546026055 pbc="F F F"
C        1.80511900       3.28958500      -0.05835700       0.30182594      -1.42136764       1.24902555
H        1.93919100       2.20182400       0.03209400      -0.30162590       0.38619566      -0.49726579
H        2.83674200       3.65496400      -0.41461500      -2.05616175       0.35332822       0.95223332
H        0.87380000       3.50029100      -0.63439700       1.21785144       0.24702647       0.47520058
Cl       1.33687100       3.54565600       1.82859900       0.81768646       0.41160999      -2.16261622
Br      -1.12020700      -2.55345000      -0.84911800       0.02009780       0.02325306      -0.01542148
6
Properties=species:S:1:pos:R:3:forces:R:3 charge=-1.0 dipole_moment="1.302051639313753 -0.1327885541556269 -0.47630341121593384" energy=-13.29462112083411 pbc="F F F"
C        3.22051900      -0.54595100      -1.12194000      -2.82946890       0.42701964      -0.44591160
H        2.69838900      -1.17985500      -0.40987700       0.33866830      -0.51010331      -0.28610364
H        4.04138600      -0.09617900      -0.64370300       1.43804690       0.12542665      -0.05830285
H        3.30003200      -0.99183000      -2.14483900       0.30048074       0.56880879       1.18474848
Cl       1.98264400       0.84392000      -1.16632400       0.87614718      -0.51669407      -0.49249279
I       -1.18996000      -0.16609600       0.56146400      -0.12438432      -0.09390492       0.09883887
6
Properties=species:S:1:pos:R:3:forces:R:3 charge=-1.0 dipole_moment="-2.5507278192839844 -1.8085054512787722 2.0736571011127327" energy=-12.668649240961285 pbc="F F F"
C       -2.00713000      -1.82112000      -0.09220500      -0.07741746       0.44833718      -1.55359177
H       -1.32439700      -2.61562100      -0.38932000       0.22001857       0.48410534      -0.02583445
H       -2.32499300      -1.17211100      -0.95293300       1.07703520      -0.25142254       0.97737820
H       -2.90523300      -2.28256500       0.18128200      -1.27810268      -0.78857848       0.76501843
I       -1.30758700      -0.80299100       1.61999200       0.07384826       0.12298050      -0.14899647
Br       2.51141500       1.70158700      -2.40415400      -0.01525076      -0.01548421      -0.01327461
6
Properties=species:S:1:pos:R:3:forces:R:3 charge=-1.0 dipole_moment="-0.1518860305076654 -3.8517221625310305 2.1054389552019863" energy=-12.373670386082884 pbc="F F F"
C        0.13300100       0.02217100       2.04603000      -2.94113706       3.53608627      -3.50736036
H        0.78945600       0.90891400       1.85267000      -0.24216760      -1.24052703       0.90302755
H        0.35364200      -0.76494500       2.68104300       0.60990068      -1.07492740       1.18463124
H       -0.96088000       0.45147800       2.07171900       2.29989977      -1.03353573       0.75993536
I       -0.04808800      -0.72055700      -0.04243500       0.26934107      -0.17236574       0.60975876
F        0.17427200       4.16233900      -1.84806300       0.00525945      -0.01390196       0.05006350
6
Properties=species:S:1:pos:R:3:forces:R:3 charge=-1.0 dipole_moment="0.28305159815849296 1.8550677540362848 1.7937837412808861" energy=-14.536361529058537 pbc="F F F"
C        0.28000000       1.96529200       1.57234700       4.71781525      -5.89313755      -0.00387157
H        0.05220100       2.85342700       1.92167100      -0.52659179       4.72654980       0.97126155
H       -0.21563100       1.67801500       0.66724900      -1.35644934      -0.88721372       0.30159865
H        1.37627900       1.65251400       1.31091000      -1.71247979       1.83065901       0.28737891
F        0.19908800       1.18329700       2.81374100      -1.13097746       0.13371794      -1.59014206
Cl      -0.27556700      -1.68384600      -2.27397600       0.00880140       0.08860536       0.03526731
6
Properties=species:S:1:pos:R:3:forces:R:3 charge=-1.0 dipole_moment="-0.6015421941084463 1.669199550597841 2.7411802848975424" energy=-12.776198769250648 pbc="F F F"
C       -1.69640000       0.89724200       2.24276900       1.54653564       1.86546455      -1.26904365
H       -1.49717700      -0.06290500       2.58236000      -0.00477557      -1.45249753       1.15728807
H       -1.84466200       0.82128400       1.17946200      -0.09606568       0.24104711      -0.30885071
H       -2.47381900       1.50521000       2.71826200       0.81797288      -0.15617602       0.19731418
Br       0.29436900       1.71374900       2.29997200      -2.22496651      -0.50238742       0.19868150
Br       0.16260400      -1.93223600      -2.86959200      -0.03954151       0.00429683       0.02445171
6
Properties=species:S:1:pos:R:3:forces:R:3 charge=-1.0 dipole_moment="2.37495790455473 3.66770607932956 0.8839693631584741" energy=-13.097080054179228 pbc="F F F"
C       -0.22929100       0.16694700      -0.97335700       1.40884071       1.40751762      -1.28152584
H        0.36594000       0.22608100      -1.95856100      -0.67725536       0.74694666       1.78141158
H       -1.11880600       0.80447500      -0.96752900       0.18068429      -0.79471005      -0.31007661
H       -0.34091100      -0.88638200      -0.88555000      -0.69090586      -0.69718758       1.00543562
Br       0.76601700       0.99836900       0.60865500      -0.32655018      -0.80078917      -1.18843750
F       -2.70456500      -4.00986300      -1.29457200       0.10570166       0.13823949      -0.00649358
6
Properties=species:S:1:pos:R:3:forces:R:3 charge=-1.0 dipole_moment="1.4191262762016867 -0.23721955995155872 1.5719103204356788" energy=-13.090081303995165 pbc="F F F"
C        0.46953500       0.27481400       1.62527500      -0.15082401      -2.37119338      -0.52296294
H       -0.17653100       0.75036900       0.84775600       0.66664133       1.12519710       1.30540111
H        0.81861900       0.34029100       2.67610000      -0.03846679       2.04886958      -0.96493817
H       -0.11968400      -0.58496600       1.82036200      -1.01935969      -1.11738866      -0.18427509
Cl       1.80349100      -0.48726800       0.67136300       0.43220247       0.26297554       0.11915264
Cl      -1.99993900       0.36052800      -1.55935600       0.11048031       0.05122152       0.24670611
6
Properties=species:S:1:pos:R:3:forces:R:3 charge=-1.0 dipole_moment="1.0879348980209906 -1.1511752789238432 0.53782925795656" energy=-13.77177758572073 pbc="F F F"
C        2.91917300      -3.28668900       1.44306600       0.05270196      -0.18629906       5.13579592
H        3.62110000      -2.50162400       2.08110400      -1.16682224      -0.77273226      -3.57504671
H        3.21175600      -4.01093200       0.60010100      -0.00240655       1.70405428       1.52613907
H        2.82624100      -3.74139100       2.51607000       0.25125233      -1.26000828      -2.13225664
F        1.59947200      -2.86134600       1.31768200       0.87825137       0.47312313      -0.93579060
I       -0.78432800       1.05143800      -0.48518500      -0.01152471       0.04167296      -0.01862199
6
Properties=species:S:1:pos:R:3:forces:R:3 charge=-1.0 dipole_moment="-0.26933003308857256 1.6011103189145914 -0.44674198470220594" energy=-13.516316723184632 pbc="F F F"
C        0.35885100       0.65566700      -0.38886600      -1.36275780       2.68743858       5.11140489
H       -0.28727900       0.03651500       0.25643600       1.45762020      -0.10465368      -0.16149717
H        1.25596600       1.16924400       0.15444800      -1.65619217      -1.61014216      -1.55392190
H        0.37785400       0.22587300      -1.30932800       0.64545133      -0.61051261      -2.67772341
Cl      -0.94499200       2.12794200      -0.36403900       0.89346150      -0.44141217      -0.65483020
Cl       0.73913000      -2.44356800       0.55413600       0.02178547       0.08008884      -0.06316121
6
Properties=species:S:1:pos:R:3:forces:R:3 charge=-1.0 dipole_moment="0.22067748034933304 4.086020664280277 0.8501655229476559" energy=-13.06077837649117 pbc="F F F"
C       -0.43249500       1.05720300      -0.76066200      -2.95820765      -2.22955181       1.64028989
H        0.22189900       0.65023700      -1.49204600       0.95978825       0.34028296      -0.38928819
H       -1.16547700       1.78426200      -1.10901100       0.31133285      -0.30335009      -0.37766989
H       -1.01669700       0.11095700      -0.35305800       1.14672752       2.05155947      -0.86679813
Br       0.32818200       1.88845500       0.79909400       0.55409951       0.05214043      -0.00125264
Cl      -0.40771200      -4.41085900      -1.20295300      -0.01407833       0.08886299      -0.00583281
6
Properties=species:S:1:pos:R:3:forces:R:3 charge=-1.0 dipole_moment="0.32368923286653256 0.4279953528407712 -0.032470842817407856" energy=-13.640097553950246 pbc="F F F"
C        1.29600100       2.67768000      -0.24959200       0.44075396      -3.83075374      -2.68499346
H        0.41373500       1.84221600      -0.66266600       1.97057486       3.23562456      -0.07796100
H        1.39071000       1.99663800       0.58571000       0.65995441       1.15889296       1.38691640
H        2.47467400       2.44806600      -0.92484000      -3.98322736       1.49874757       1.89783783
F        0.90003700       4.01959600       0.01243700       0.83677484      -2.20379039      -0.50242445
I       -0.38029200      -1.10432800       0.04504600       0.07529888       0.14167397      -0.01933881
6
Properties=species:S:1:pos:R:3:forces:R:3 charge=-1.0 dipole_moment="-0.385453738529123 0.6642777399524216 4.22048565183897" energy=-12.02920045387517 pbc="F F F"
C        0.96227300      -0.38387200       1.70910200      -0.41106081       4.57469529      -1.19473208
H        1.74371400      -0.59859400       2.36162700       1.07151966      -0.29304305       1.15136939
H        1.03630600       0.69871700       1.27845900       1.65128342      -2.78556166      -0.41604617
H        0.79192500      -1.11376000       0.97583700      -0.87741987      -0.81956388      -0.74909970
I       -0.63127800       0.59771200       2.70362500      -1.44611554      -0.67047588       1.16803888
Br       0.68891800      -0.81033900      -4.51893300       0.01107940      -0.00565540       0.04086923
6
Properties=species:S:1:pos:R:3:forces:R:3 charge=-1.0 dipole_moment="-3.3396315549190847 -0.3809948913529121 -2.6748045290220985" energy=-12.43819347380907 pbc="F F F"
C        0.66917900      -0.57804500      -1.36614900      -0.08871232       2.94009062      -0.49618284
H        1.32644000       0.11034400      -0.78712600      -0.29576893      -1.38022639       0.30487064
H        0.54254400       0.07006200      -2.26261600       0.35076483      -1.41393664      -0.03886531
H        1.02033000      -1.61659400      -1.52196600      -0.83501415       0.76833156       0.40655932
I       -1.37128000      -0.01938000      -0.60726800       0.90469362      -0.90594626      -0.07710585
Cl       3.86902700       0.34891700       2.64434100      -0.03565452      -0.00842139      -0.09912169
6
Properties=species:S:1:pos:R:3:forces:R:3 charge=-1.0 dipole_moment="-1.791458007440458 0.9541880039370324 0.4248769115389186" energy=-12.110677773718924 pbc="F F F"
C       -2.61657200       0.52416000       1.36607300       2.75674936      -2.06842180       0.73561118
H       -1.69909800       0.08040800       2.06399200      -1.51356792       2.12310145      -2.18903431
H       -2.81949800      -0.49625100       0.85093500      -0.71725453       2.37523002       0.57681007
H       -3.28114400       1.02517400       2.10328800      -0.07381946      -0.59737941      -1.28452272
Br      -2.15042400       1.95215600      -0.17729000      -0.39360250      -1.80963921       2.10701251
I        1.86347200      -1.35999500      -0.13225500      -0.05811979      -0.02328443       0.05424771
6
Properties=species:S:1:pos:R:3:forces:R:3 charge=-1.0 dipole_moment="2.8157148950054594 1.1599141113790947 -0.4136684090419659" energy=-11.887550689470613 pbc="F F F"
C        3.70485900       0.99240100      -0.20122000      -1.38658833      -4.52076177      -2.96292254
H        4.35615000       0.32874300      -0.92655800      -1.97031415       0.29622505       1.73112697
H        3.48654700       0.65666600       0.75600100       1.51964704       0.17077166       1.94292470
H        3.91003200       1.87652100      -0.60484200       0.87304231       4.31613537       0.05825452
Br       1.62183100       0.95748400      -0.42426200       0.94209444      -0.28619723      -0.76536348
Br      -2.59274200      -1.20937900       0.48091100       0.02148980       0.02385161      -0.00463313
6
Properties=species:S:1:pos:R:3:forces:R:3 charge=-1.0 dipole_moment="-0.5863283493047361 -0.33105326292873904 0.9163761755334038" energy=-12.184921627372763 pbc="F F F"
C       -1.60045700      -0.45783700       1.95957000      -2.22598004      -0.77960225      -1.16978878
H       -2.61257300      -1.08195700       1.76107800       2.82861632       0.50066633       0.44661968
H       -1.88146100       0.43793500       1.43217700       0.46714171       0.50569181      -0.52254642
H       -1.63138100      -0.14111100       3.00893500       0.93295725      -0.73407829      -0.04119113
Cl      -0.02164400      -1.00913800       1.11412300      -2.48632534      -0.84972549       3.18512757
Br       0.45988900       0.59107100      -1.05427700       0.48755319       1.35644008      -1.89917532
6
Properties=species:S:1:pos:R:3:forces:R:3 charge=-1.0 dipole_moment="-2.302157408165831 0.7054651897822369 0.15849651222202887" energy=-13.064279504039531 pbc="F F F"
C        0.72934000      -0.21280400      -0.64820700       0.91387400       0.43725418       1.04561631
H        1.32907400       0.07604000       0.22723100      -0.04712575       0.17736551      -0.99641002
H        1.08154500       0.26256600      -1.61529100      -1.02456875      -0.63630026       1.40353138
H        0.72503400      -1.29293000      -0.57494800      -0.19512103       0.09300349      -0.69594626
I       -1.25384200       0.38215600       0.23194800       0.08616950       0.03209251      -0.68967328
Cl       3.46717200      -1.06018500      -0.37888100       0.26700805      -0.10343960      -0.06733977
6
Properties=species:S:1:pos:R:3:forces:R:3 charge=-1.0 dipole_moment="1.724884868465474 -2.604790150646818 -3.1310092606036073" energy=-12.652228296011467 pbc="F F F"
C        0.31881000      -0.47497600      -0.32508900      -2.09122131      -1.70904017       2.21537012
H        0.70286200       0.49107200      -0.56865600      -0.22223949       1.02920702       1.76608678
H        0.76058100      -1.18424000       0.52784000      -1.41428477       2.70725922      -1.17017753
H       -0.80426000      -0.60246200      -0.54588100       1.52630414       0.99315963       1.92827352
Cl       0.84303900      -1.24887200      -1.69195100       2.18317682      -2.99419641      -4.70842969
F       -1.87819000       2.81959000       3.47782200       0.01834894      -0.02640060      -0.03142145
6
Properties=species:S:1:pos:R:3:forces:R:3 charge=-1.0 dipole_moment="2.146655509778383 -0.12760314666931183 0.43293204703812144" energy=-11.853277576892465 pbc="F F F"
C        0.31016000       1.00146300       0.55380400       4.79520443       2.63582060      -1.66274899
H       -0.03380200       1.27849000      -0.46003900      -1.59341096      -1.26996462       1.31830239
H        1.23729300       1.85574000       0.45718700      -2.78838010      -1.56493188       1.86500638
H       -0.10062500       0.68632600       1.53042600      -0.43998058       1.01095424      -1.30890038
I        1.82630200      -0.51069600       0.20441300       0.11340777      -0.84471132      -0.20943591
Br      -2.85022400       0.49250200      -0.44812200      -0.08629446       0.03238562      -0.00186765
6
Properties=species:S:1:pos:R:3:forces:R:3 charge=-1.0 dipole_moment="-0.6913245163615499 -2.651823421121732 1.107918217023513" energy=-12.122069950639101 pbc="F F F"
C       -0.56976400       0.36485400       1.78153200      -3.50840680      -0.93451637       1.17391900
H       -1.59354600      -0.14631900       2.33731800       2.95016266       0.90999061      -1.97493545
H       -0.84198100       1.46864700       1.84335800       1.27150163      -1.43884240      -0.93327658
H        0.29216600      -0.01291500       2.29735900       0.16203813       0.66785335       0.67360080
I       -0.02121400      -0.59735000      -0.15772800      -0.79583928       0.91590106       0.89629383
F        0.74291800       3.12899900      -0.97862600      -0.07889945      -0.12039089       0.16376694
6
Properties=species:S:1:pos:R:3:forces:R:3 charge=-1.0 dipole_moment="0.06475859031996063 0.7451878770932117 -0.07205806076247825" energy=-12.520736984077036 pbc="F F F"
C        0.09738500       2.03078500      -0.51638200      -3.48715046       9.69591614      -0.77460505
H        0.30101500       1.11444400      -0.65813200       2.09758685      -6.34681388       0.30950736
H       -0.74498700       2.41502500       0.16782900       1.43991969      -1.52214821      -1.02404321
H        0.83687400       2.91854300      -0.58733300      -0.82823467      -2.11271471      -0.17959054
Cl      -0.87431100       1.96475900      -2.33586800       0.70815694       0.73445676       1.33402726
I        0.26200100      -0.98176600       0.82803200       0.06929689      -0.44803019       0.33380172
6
Properties=species:S:1:pos:R:3:forces:R:3 charge=-1.0 dipole_moment="-0.2437178560972827 -2.020171043732203 -1.0320172713579199" energy=-14.794225119046036 pbc="F F F"
C       -0.21872900      -2.21151500      -0.84482800       3.41323535       4.64598582       1.67143418
H       -0.31686100      -1.48754000       0.13215800       1.18936876      -1.57457403      -2.35262539
H        0.73190600      -2.79326800      -0.94319900      -1.24973929       0.19304512       0.68076183
H       -1.11009100      -2.65302600      -0.79164500      -3.19524126      -2.80372239      -0.36786987
F       -0.22646400      -1.37930200      -1.98348600      -0.13358630      -0.34716580       0.34966594
Cl       0.23797600       1.91862600       1.44253100      -0.02412621      -0.11306993       0.01838956
6
Properties=species:S:1:pos:R:3:forces:R:3 charge=-1.0 dipole_moment="1.2817434055039447 -0.07571520446468497 -0.13440624888832056" energy=-13.688951994114708 pbc="F F F"
C        2.91904900      -0.25585200      -0.52467200       0.73214739      -1.42830808      -1.68663403
H        2.74292200      -1.37219200      -0.37843100       0.37372324       1.59721106      -0.21432975
H        3.71534000      -0.07226000      -1.33028100      -1.32461188      -0.49061177       1.10789461
H        1.96298900       0.18045500      -0.85133300       0.39512459       0.15480819       0.68796349
Cl       3.61908700       0.40559500       0.96498300      -0.27808488       0.17674176       0.15904743
I       -1.65018900      -0.07728300      -0.20182300       0.10254640      -0.00932436      -0.05210341
6
Properties=species:S:1:pos:R:3:forces:R:3 charge=-1.0 dipole_moment="-0.3403969449356648 -1.6403488090779006 1.317816886770871" energy=-11.308117797333097 pbc="F F F"
C       -1.42247700      -0.45840800       1.33712200      -2.53152379      -5.37946556      -7.90179919
H       -1.59642500      -0.09966000       0.27410900       2.66834711       1.46557211       1.24333930
H       -1.45749700       0.11851800       2.13599000      -0.22982424       2.48697068       3.34508311
H       -2.40752000      -1.01343100       0.87595200       1.39128265       0.08281318       3.23956503
I        0.16853100      -2.05678100       1.36432000      -1.20021573       1.38097612       0.05552966
I        0.09555100       2.12744100      -1.57769400      -0.09795955      -0.03710411       0.01823992
6
Properties=species:S:1:pos:R:3:forces:R:3 charge=-1.0 dipole_moment="-1.3505925356615636 -3.2730510074631534 -1.1409060659756416" energy=-11.711077814630043 pbc="F F F"
C       -0.03279100      -1.90401200      -1.11660400      -1.64935149       2.92611565      -1.97833548
H        0.31052400      -2.66860100      -1.67351900       1.92565717      -2.65403995      -1.06322580
H        0.60997100      -1.43134600      -0.39789600      -0.47355096      -0.81243369       1.48264372
H       -0.02118300      -1.04228400      -1.93082600      -1.66717283      -1.53759077       1.64244602
Br      -1.86098600      -3.14904900      -0.73682800       1.86426231       2.13367228      -0.05407750
Br       1.84091300       3.62237200       1.04259600      -0.00038258      -0.05567879      -0.02904935
6
Properties=species:S:1:pos:R:3:forces:R:3 charge=-1.0 dipole_moment="0.49476481656087457 0.13567098242156814 -1.6655693949333732" energy=-12.60171468539549 pbc="F F F"
C        1.84209700       0.15648600       0.03344100       1.16165432       3.15076632      -0.61863061
H        2.08591300       1.11221600      -0.63752900       0.05519079      -2.51363662       1.03951663
H        2.59876600      -0.65808900      -0.03319200      -1.21997312       0.18543260      -0.77394890
H        2.02402200       0.56851800       1.03204400      -1.03594588      -0.36585309       0.11728396
I       -0.26278300      -0.01630900      -0.41812400       0.81476208      -0.49312580       0.10084022
F       -0.42597300      -0.12190900       2.39984500       0.22412102       0.03626747       0.13466925
6
Properties=species:S:1:pos:R:3:forces:R:3 charge=-1.0 dipole_moment="-0.5091780162450019 -0.7881369578569942 -0.4856730229061772" energy=-13.762743942413314 pbc="F F F"
C       -2.35047200      -2.43351300      -1.92415100      -7.93725368       0.87576665       6.49795054
H       -1.92076100      -1.55744000      -1.55331100       0.64141367       1.28869819      -0.16922077
H       -2.02070600      -3.13892500      -2.40877700       5.41757599      -5.84166612      -6.02290834
H       -2.64446400      -3.21912300      -1.03563000       0.61817501       2.63739977      -0.95343660
F       -3.66189300      -2.34164900      -2.58922900       1.30812442       1.09844374       0.69285785
I        1.01218500       0.82247900       0.75180500      -0.04973954      -0.05887467      -0.04585666
6
Properties=species:S:1:pos:R:3:forces:R:3 charge=-1.0 dipole_moment="-1.3004582867327452 -0.49772820894003206 1.367372745008543" energy=-13.779562119302957 pbc="F F F"
C       -1.08586500      -0.40955700       1.47282900      -2.50309921       1.18942532       3.50902078
H       -1.08587000      -0.86664200       2.47991100       1.92201597       2.68189117       1.31918839
H       -0.53816400       0.23118100       0.84041900       0.76533571       1.47043869       0.32515921
H       -0.90043900      -1.31180600       1.23151800       1.57903901      -6.45515709      -4.09757821
F       -2.46559200      -0.33865300       1.42211700      -1.63912158       1.13815444      -1.20728678
Cl       1.83705800       0.43838100      -1.54046300      -0.12374566      -0.02468825       0.15140765
6
Properties=species:S:1:pos:R:3:forces:R:3 charge=-1.0 dipole_moment="0.5763200207213421 -0.9786751501786636 -0.8926880868797239" energy=-13.551849838276835 pbc="F F F"
C        1.36279600      -3.01740300      -2.68657800       2.55897289       4.53441227      -5.02745888
H        1.87203100      -2.02392600      -2.41568400      -0.39685340      -2.30473859       2.45905981
H        1.84883300      -2.57139500      -3.74664900      -0.83417957      -2.44296625       1.07437050
H        1.59843300      -4.09524700      -2.63697200      -0.06392997       1.06317283       0.85790160
F        0.06307500      -2.67823700      -2.88575400      -1.29744303      -0.85723311       0.63483216
I       -0.26535400       0.96036100       0.96019900       0.03224215       0.00788352       0.00121510
6
Properties=species:S:1:pos:R:3:forces:R:3 charge=-1.0 dipole_moment="3.586958928769624 -0.22784253978036745 -0.8290037262972079" energy=-11.376802534559925 pbc="F F F"
C        1.48937200       0.98127700      -0.48745000       5.52507897       4.94976939      -6.38304381
H        2.55930300       0.89138200      -1.30902100      -2.84027679      -0.99155269       1.92968712
H        2.07813100       1.68555200       0.07523000      -0.85319185      -0.18327339       1.78077858
H        0.91184000       1.57238000      -1.22626600       0.13724498       0.05604285       0.82879671
Br       0.53936900      -0.39763600      -0.05850600      -2.04135888      -3.81310106       1.86385504
F       -3.70704600       0.43114200       0.82582900       0.07342865      -0.01659596      -0.02081874
6
Properties=species:S:1:pos:R:3:forces:R:3 charge=-1.0 dipole_moment="-1.2249018354312295 -3.2813072303023705 0.14316519007757325" energy=-12.55727353372123 pbc="F F F"
C       -1.53688100      -2.30175800       1.37602700      -2.07684267       1.20300795       0.97695294
H       -2.56186400      -1.89955500       1.25839200       0.53819672      -0.27383691      -0.50520227
H       -0.90302800      -1.45562100       1.38766100       0.58943779       0.83659795       0.66648810
H       -1.62088300      -2.78262300       2.35562300       0.87966702      -0.68074538      -0.59510964
I       -0.88919600      -3.19271700      -0.36747800       0.08528607      -1.06427789      -0.56163644
I        1.15914000       3.56910100       0.11733000      -0.01594187      -0.02082491       0.01865078
6
Properties=species:S:1:pos:R:3:forces:R:3 charge=-1.0 dipole_moment="1.5562281538006195 1.634659624887129 0.45153474269828264" energy=-13.240884905954102 pbc="F F F"
C        1.66882500       1.65074400      -0.20730900      -1.96152560       2.80194164       0.02747275
H        2.15700300       0.77646700      -0.36903800       1.77799305      -2.39390137      -0.19197863
H        1.82421600       2.35783700      -1.03551500      -0.19180328      -0.45299602       0.36416439
H        0.60125900       1.40676900      -0.07839800       0.53455861       0.42319024       0.16239963
Br       2.37932400       2.59538400       1.37372900      -0.22827798      -0.45577281      -0.36184063
I       -1.84663700      -1.98649000      -0.85573000       0.06901510       0.07757893      -0.00057336
6
Properties=species:S:1:pos:R:3:forces:R:3 charge=-1.0 dipole_moment="-0.3258408674046852 1.192426759196137 -1.333685323784049" energy=-15.221585465037258 pbc="F F F"
C       -0.69437600       2.48097700      -2.76248000      -0.48785709      -2.13812081      -0.86244011
H       -0.87908000       2.91827900      -1.80436800      -1.05673891       0.42431227       0.29288312
H        0.17395300       1.89448600      -2.58787800       1.00014738      -0.61616646      -0.03381258
H       -1.43443900       1.76498200      -3.23835300       0.31612230       1.06339703       1.28633021
F       -0.41147700       3.40807200      -3.71155900       0.23743471       1.23366218      -0.64713694
Br       0.28597500      -1.48960700       1.64598600      -0.00903794       0.03285407      -0.03537118
6
Properties=species:S:1:pos:R:3:forces:R:3 charge=-1.0 dipole_moment="1.8759385032209226 -0.4962676798388759 -4.277344684759633" energy=-12.243877933782205 pbc="F F F"
C       -1.03193700      -0.67672500      -0.46605100       1.41228805      -2.25382457       0.80711305
H       -1.68258000      -0.67419000      -1.40140700       1.02536887       0.02877682       1.80862363
H       -1.30898900      -0.22948400       0.47262100      -0.47674838       1.99933779      -0.47272666
H       -0.90698600      -1.69085400       0.16679800       0.36248084       1.32662402      -2.80304207
Br       0.90506600       0.10848800      -1.08047200      -2.34101789      -1.05864769       0.80068735
F       -2.39857000       0.31753400       4.59720000       0.01698831      -0.04243195      -0.14036887
6
Properties=species:S:1:pos:R:3:forces:R:3 charge=-1.0 dipole_moment="-1.6485563476137457 -2.508993200218446 -2.4548742468940814" energy=-12.081306601326528 pbc="F F F"
C       -0.44708600      -1.19385600      -2.30024500       1.89453190      -3.57187500      -0.25258571
H        0.43285300      -1.36916900      -3.08926900      -1.71204322      -0.63018360       2.61696258
H       -0.37042200      -1.01420500      -1.25774500       1.35830516       1.01053412       0.25635340
H       -1.07698800      -0.62527600      -2.81104900      -2.68430235       3.01663031      -1.58334252
Br      -1.90425700      -2.65751600      -1.77245900       1.15143778       0.19196012      -1.00625375
Br       2.00988700       2.94813900       2.37130200      -0.00767423      -0.01709527      -0.03105122
6
Properties=species:S:1:pos:R:3:forces:R:3 charge=-1.0 dipole_moment="0.93686062535433 -2.5015053426889673 2.3618448932769582" energy=-14.908005268294996 pbc="F F F"
C        0.91240100      -2.51260900       2.51458900       0.50007292       0.24355445       3.07065794
H        1.31285300      -1.69848500       3.22446100      -1.17578048      -1.35764799      -0.51731577
H        1.70103000      -3.25765700       2.52601600       0.38521967      -0.12664227      -0.79458612
H        0.01918500      -3.10923100       2.90336700       0.70055264       1.47092257      -0.63462801
F        0.73542300      -1.88914400       1.34320600      -0.40151121      -0.25450735      -1.11187056
Cl      -0.88978100       2.36137200      -2.10766100      -0.00938144       0.02527600      -0.01404799
6
Properties=species:S:1:pos:R:3:forces:R:3 charge=-1.0 dipole_moment="2.890016667140728 -0.38072183591226116 1.666230866446578" energy=-14.669629629154118 pbc="F F F"
C        2.79214100      -0.31651200       1.37196600       0.95092669       1.25075025       4.07908015
H        2.40070900       0.75319700       1.40457200       0.47793880      -1.57120177      -0.05691240
H        2.06533100      -0.97609000       0.92681900       0.68984554      -0.17528549      -0.90193586
H        3.94605800      -0.27421500       1.22848900      -2.47355981      -0.69617457      -0.44514592
F        2.68489700      -0.82878500       2.85003200       0.31991931       1.19339202      -2.68254989
Cl      -2.90170700       0.57972000      -2.20246800       0.03431703      -0.00123207       0.00653986
6
Properties=species:S:1:pos:R:3:forces:R:3 charge=-1.0 dipole_moment="-4.44317823900613 -0.6275882964123987 2.0762955786846042" energy=-12.525751345352578 pbc="F F F"
C       -2.16491900      -0.62388900       0.45880500      -2.43894710      -2.23854913       0.18054082
H       -2.16457900      -1.67027400       0.33572900       0.96120390      -1.70797573      -0.42532632
H       -2.72728300      -0.39224000      -0.41251000      -0.85500397       1.23275510      -0.19381388
H       -2.66404700      -0.66387900       1.41044200      -0.46933075       1.42318181       0.34656828
Br      -0.51042400       0.06203900       0.43029800       2.80728182       1.28970761       0.08714601
F        4.26780600       0.47759600      -2.12743600      -0.00394870       0.00191393       0.00583846
6
Properties=species:S:1:pos:R:3:forces:R:3 charge=-1.0 dipole_moment="0.9408135791172418 -0.3198611649253138 1.4039600573469269" energy=-14.344554057368686 pbc="F F F"
C        1.75654000      -0.75780900       2.95280000      -0.60467723       1.30741171       1.67002522
H        1.93846500       0.14530400       2.20243000      -1.45717128      -2.12161330       1.24022621
H        2.42057200      -1.62214400       2.58905900      -0.81064369       1.43840429       1.30156451
H        1.82139100      -0.24322500       4.07836000       0.94644011      -1.79072875      -3.01769475
F        0.41622700      -1.33618400       3.11560300       1.86344161       1.14788606      -1.20673193
Br      -0.58473500       0.52264500      -1.56077400       0.06111050       0.01843687       0.01304166
6
Properties=species:S:1:pos:R:3:forces:R:3 charge=-1.0 dipole_moment="2.8196017016170507 -2.5044126422838047 2.5957941380672325" energy=-11.67643564978358 pbc="F F F"
C       -0.01005300       0.40390400       2.00654800      -4.02325996       0.21299072       1.61807299
H       -1.02979900      -0.07222300       2.68997400       3.27367894       0.55804564      -2.49408287
H       -0.42506900       1.50273100       2.00520200       1.66794931      -2.00714572      -0.78139688
H        0.90845900       0.19906700       2.53325600      -0.09411884       0.48706673       0.39982303
I        0.51623300      -0.54130300       0.04808500      -0.82789734       0.74304167       1.22714392
F       -2.97262500       2.73734200      -2.42402600       0.00194375       0.00843836       0.03056528
6
Properties=species:S:1:pos:R:3:forces:R:3 charge=-1.0 dipole_moment="1.4703030042353158 0.5972029409818229 -0.3157494579992327" energy=-12.86615664913921 pbc="F F F"
C        3.12471000       1.27040300      -0.74310100      -2.84575376      -5.84017231     -15.57829568
H        3.86834500       1.45898400      -1.89996100      -0.81036755      -0.76100648       3.98051948
H        2.80364800       0.22387500      -0.91252100       1.36042529       0.09619578       1.69115609
H        3.51950900       1.63365300      -0.01435400       4.02626609       4.33434855       8.87029269
F        2.02393000       1.82166300      -1.31696200      -1.78048599       2.19379908       1.02098411
Br      -1.34729000      -0.78096800       0.54680300       0.04971177      -0.02316667       0.01539885
6
Properties=species:S:1:pos:R:3:forces:R:3 charge=-1.0 dipole_moment="-0.4930079482218026 -0.38475945802886324 4.823180393912025" energy=-13.496035550339428 pbc="F F F"
C       -0.67312200       0.05591800       0.93594800      -1.62261201       0.59319005      -3.67781731
H       -0.23461800       0.83382500       0.20847400      -0.62179358      -0.73097445       1.73594522
H       -1.73255600       0.28132800       1.22380100       1.09229521       0.03566326      -0.47155887
H       -0.67531700      -0.83263500       0.27443500      -0.20908778       0.26675609       0.60823204
Cl       0.22780100      -0.27214500       2.32398400       1.37411333      -0.16445394       1.76642205
F        0.31206700       0.44538200      -5.20334800      -0.01257012      -0.00041292       0.03920316
6
Properties=species:S:1:pos:R:3:forces:R:3 charge=-1.0 dipole_moment="-0.24960442338759484 -0.02148512392610253 -0.43681620776366004" energy=-14.673270745970061 pbc="F F F"
C       -1.03369200       0.24476100      -2.26105000      -2.21843951      -2.92621387      -4.72074425
H       -1.28630300       0.67746800      -1.38567900      -1.54237919       1.33075322       2.63098487
H       -0.13990900      -0.25108500      -2.09240300       1.33630423      -1.54202181       0.33335486
H       -1.92891000      -0.55690200      -2.81586700       2.63557274       2.46573440       2.05214363
F       -0.72173900       1.20315000      -3.20428600      -0.30303795       0.73217876      -0.57151565
I        0.30288500      -0.22955500       0.91884600       0.09083143      -0.06176253       0.27614061
6
Properties=species:S:1:pos:R:3:forces:R:3 charge=-1.0 dipole_moment="3.9423596351564054 0.8956271371071955 0.20359034822022662" energy=-12.892864967233404 pbc="F F F"
C        1.84711500      -0.22061400      -0.71772300       4.14338036       1.92116802       2.59987554
H        1.90134200      -1.30498200      -0.80355000      -0.99608401       0.19546196       0.73380730
H        3.00810000       0.13848000      -0.59588300      -2.82819004      -0.97817679      -0.16022396
H        1.54174900       0.27852400      -1.56940600      -1.09982803       0.57419577      -1.63961781
Cl       0.99764000       0.71687100       0.71616100       0.78433153      -1.69149187      -1.50302280
F       -3.83264000      -1.10835000      -0.54439600      -0.00466141      -0.02079200      -0.03037399
6
Properties=species:S:1:pos:R:3:forces:R:3 charge=-1.0 dipole_moment="-0.8798523644602874 2.1037175417360223 0.6295039179146398" energy=-13.606934557670519 pbc="F F F"
C       -0.88646800       0.32106800      -0.77000200      -0.17219245       0.37404257      -1.30869932
H       -0.42190900      -0.63313500      -0.81830600       0.50310116      -1.05863998       0.03898615
H       -0.62297300       0.87868300      -1.67162000      -0.00525585       0.02085576       0.26958379
H       -1.95428700       0.23604100      -0.71439200      -0.43646896       0.04284075       0.27328000
Br      -0.19958400       1.22973100       0.73945000       0.18840480       0.56301147       0.75662327
Cl       0.90020000      -2.67344600      -1.06214200      -0.07770697       0.05767550      -0.03036113
6
Properties=species:S:1:pos:R:3:forces:R:3 charge=-1.0 dipole_moment="-0.6424052583081863 0.7177653848645829 -2.2602269935323838" energy=-13.932856926624787 pbc="F F F"
C       -0.52013000       0.53502000      -2.09433000       4.04865115      -7.26486953       1.81819893
H       -1.01133500      -0.34264200      -1.53536300      -0.21493241       1.97869800      -0.66216556
H        0.53080900       0.46260200      -1.61570300      -1.67968691       3.04651013       1.17011531
H        0.04759500      -0.01725400      -2.83842800      -1.22737378      -0.35063628      -2.05088430
F       -1.25695500       1.48624600      -2.57009300      -0.92102887       2.59122789      -0.18337623
Cl       0.87448800      -0.98170800       2.45213600      -0.00657123       0.00037641      -0.09210669
6
Properties=species:S:1:pos:R:3:forces:R:3 charge=-1.0 dipole_moment="-1.0711287589906935 0.03142783453538652 -3.1991037840589622" energy=-12.574477948698172 pbc="F F F"
C       -1.49591900       0.23847600      -1.73446800      -0.21068495       0.10692602      -2.06007342
H       -2.39339500      -0.38146200      -1.94200300       1.23446334       0.13216037      -0.32392868
H       -1.66221700       1.26322100      -1.99157600      -0.11917733       0.52711064      -2.33936107
H       -1.58220500       0.60617900      -0.76365800       1.60037351      -1.47185383       3.00678299
Cl       0.13924500      -0.32434400      -2.60604200      -2.45491571       0.68270250       1.74231127
Cl       0.72036300       0.15265100       3.49451600      -0.04907311       0.02248996      -0.02626125
6
Properties=species:S:1:pos:R:3:forces:R:3 charge=-1.0 dipole_moment="3.0309947678070412 1.8939040695195648 1.0837866778673806" energy=-12.814097847349549 pbc="F F F"
C        1.65552800       0.34445000       1.05054000       1.62995406       2.41732669       3.10667704
H        1.40092700      -0.40276200       1.70829100      -1.89697188      -2.88692124       0.17744213
H        1.72539000       1.05438600       1.99252500       0.73246826      -0.11562509      -2.44696020
H        2.56688600       0.04660000       0.59206600       1.06251258       0.27208238       0.10676455
Cl       0.63857500       0.93830700      -0.15534900      -1.53006926       0.32812627      -0.95682120
F       -2.94246100      -2.07957100      -0.88391100       0.00304933      -0.01552278       0.01274445
6
Properties=species:S:1:pos:R:3:forces:R:3 charge=-1.0 dipole_moment="2.3661206451383143 -1.022973632829384 -0.7142304810980163" energy=-13.618193791222236 pbc="F F F"
C        1.39754800      -1.00148700      -0.33831200       2.25404517       1.06128770      -4.56852105
H        0.59950300      -1.46514800      -0.94366000       0.04172489      -1.57269404       1.98440688
H        1.87014100      -1.17228300       0.69608000      -0.92160943      -0.85197778      -2.05432752
H        2.10732500      -0.81853500      -1.38699300      -0.02468568      -1.90760494       3.18603054
F        0.98843700       0.26088400      -0.37816900      -1.34908724       3.35186311       1.44846244
F       -2.42868700       0.79077000       0.78533000      -0.00072145      -0.07900435       0.00369930
6
Properties=species:S:1:pos:R:3:forces:R:3 charge=-1.0 dipole_moment="-1.1535692766244343 0.03891040029275924 -1.5298354404237477" energy=-12.757405729979945 pbc="F F F"
C       -1.24541100       0.25725600      -0.26083400      -2.34677819       3.37904944       6.68262621
H       -2.14550200       0.09013600      -0.70210100      -2.23885355      -0.36656735      -2.17964567
H       -1.22980800       1.28289700       0.20518100       0.36558056       0.11226414      -1.85360148
H       -1.49237600       0.00973500       0.82062500       1.33712955      -1.80385063      -0.95834227
Cl       0.12970100      -0.19673400      -0.97161700       3.11856891      -1.41334426      -1.71147912
F        1.12613700       0.04646400       1.97319900      -0.23453913       0.09194420       0.02022276
6
Properties=species:S:1:pos:R:3:forces:R:3 charge=-1.0 dipole_moment="-1.3241453170320039 -2.0916390719049027 -1.0569727394309" energy=-11.853453098103406 pbc="F F F"
C       -0.96507200      -3.36846300      -1.97858800      -2.37930316       0.34052721       0.97451708
H       -1.90835900      -3.83937500      -1.70359200       0.54081616      -0.88214916       0.84623856
H       -0.16598300      -4.09629300      -2.18589300       0.14969067       1.07265404       0.81431163
H       -1.40634200      -2.93808500      -2.82586100       0.64534540       0.91049095      -1.86988428
I       -1.25135400      -1.51247600      -0.62445300       1.11006102      -1.40772434      -0.75739306
I        1.42628100       2.09897600       0.97514900      -0.06619614      -0.03280522      -0.00863788
6
Properties=species:S:1:pos:R:3:forces:R:3 charge=-1.0 dipole_moment="1.8374937788734595 -0.21841789366022543 2.112687095455079" energy=-12.564072504391982 pbc="F F F"
C        2.01877700      -0.20579400       3.18522100      -0.23662738       0.06698033      -2.10715855
H        1.12130200      -0.82573200       2.97768600       1.23440832       0.17552254      -0.38910307
H        1.85248000       0.81895100       2.92811300      -0.14576099       0.45152483      -2.38045038
H        1.93249200       0.16190900       4.15603200       1.53977364      -1.38174437       3.01690697
Cl       3.65394200      -0.76861400       2.31364700      -2.38761811       0.68438760       1.83360036
Br      -2.26102700       0.40417400      -1.95729000      -0.00327199       0.00288735       0.02552900
6
Properties=species:S:1:pos:R:3:forces:R:3 charge=-1.0 dipole_moment="-0.90545766214784 -0.6644163843815892 1.6930760263384816" energy=-12.358537476014893 pbc="F F F"
C        0.49940900      -0.43949900       2.17463600       0.42828463      -1.71666812      -3.52440369
H        0.88033200       0.02956300       1.24415400       0.00719035       0.11889245       0.64527547
H        0.67976200      -1.54332900       1.93031200       1.07739309       1.71184370       1.79054620
H        0.79516900       0.15013400       3.03114700      -0.48070017      -0.69590820       0.47267267
I       -1.52097300      -0.74277300       1.56525500      -1.04257624       0.62042575       0.46312668
I        1.41999800       0.81825700      -1.92852700       0.00974191      -0.03897278       0.15259910
6
Properties=species:S:1:pos:R:3:forces:R:3 charge=-1.0 dipole_moment="-1.012755220893396 -1.381348315139534 2.4355169445316562" energy=-14.423515865526754 pbc="F F F"
C       -0.66329000      -1.18188700       2.34342900       3.59760711      -1.01682407      -0.72639995
H       -0.63362100      -0.64786700       3.33927400       1.50483594      -0.19664158      -1.30866178
H       -0.70079200      -0.51526600       1.43577600       0.40182437      -0.48060915       1.09277086
H        0.06341300      -2.18882100       2.11159100      -0.58860166       3.65986021       0.94152365
F       -1.78008900      -1.83393900       2.46770600      -4.89880293      -1.94657772      -0.04840153
Cl       1.25126700       1.58521900      -2.53862200      -0.01871249      -0.02041816       0.04935181
6
Properties=species:S:1:pos:R:3:forces:R:3 charge=-1.0 dipole_moment="-1.5820059632588157 -2.9505428981305992 -2.3560149479481765" energy=-12.702156437035336 pbc="F F F"
C        0.41532000      -0.32229500       0.74657400       0.86165027      -0.22776016      -2.60894742
H       -0.23884500      -0.16998300       1.53167800      -1.28084553       0.07164637       1.42100460
H        0.57846000       0.57332000       0.18073500       1.01293193       0.70323585       0.98992673
H        1.29828400      -0.93518800       0.96318500      -0.53736780       0.26622438      -0.32104905
I       -0.69429400      -1.01552900      -1.05763600       0.00020157      -0.67236718       0.59110232
Cl       1.92163300       3.31109700       2.87644900      -0.05642081      -0.14106667      -0.07208037
6
Properties=species:S:1:pos:R:3:forces:R:3 charge=-1.0 dipole_moment="1.3385272952607081 0.43102012977635423 -0.998663231776081" energy=-13.151693582919851 pbc="F F F"
C        2.38206700       0.60503100      -1.04480200       0.11188773      -3.01024832       0.04568234
H        2.12571800      -0.44192400      -0.79927100      -0.21872119       0.28910926      -0.61031720
H        2.13684300       1.00213700      -0.09087600      -0.86249050       1.62414851       0.15758292
H        3.49497700       0.51737400      -1.07885100      -0.85944323       0.98699156      -1.26403257
Cl       1.29740500       0.99042300      -2.52220800       1.70948034       0.09796675       1.68045773
Br      -1.26016600      -0.61557100       1.46043800       0.11914133       0.01221017      -0.01020831
6
Properties=species:S:1:pos:R:3:forces:R:3 charge=-1.0 dipole_moment="-0.9714370642925714 1.3044191781538157 1.85587051586471" energy=-12.021674642901212 pbc="F F F"
C       -1.52151400       1.48752600       0.47217200       4.08319392       0.60022665       1.69650450
H       -1.57981700       1.97825000      -0.47523800      -1.63934784      -0.37930459      -0.45867610
H       -0.85992200       2.19297200       0.97789000       0.62577725       0.64282572      -0.31488457
H       -2.04566700       1.40608500       1.39354300      -2.30071996      -0.86055498      -0.49372383
I        0.06653300      -0.04079900       0.29800200      -0.81796722      -0.04174392      -0.77236408
F        1.12091600      -1.37112100      -2.28036900       0.04830538       0.03812329       0.34312763
6
Properties=species:S:1:pos:R:3:forces:R:3 charge=-1.0 dipole_moment="-0.10178194467984922 0.3255286528504525 1.0527504344678111" energy=-13.655446882820373 pbc="F F F"
C        0.07369300       0.28772400       1.51159600       2.89113013      -3.69424975       2.84390822
H       -0.19584300      -0.75181300       1.83085000      -0.03217170       0.84283031      -0.65617283
H        1.18652200       0.27646500       1.68993400      -1.06445479       0.64804917       0.06806790
H       -0.03910500       0.37403000       0.51102900      -0.92385708       0.62862757      -3.02634446
Cl      -0.79219400       1.33787600       2.52284600      -0.95163477       1.72677872       1.13659789
Br       0.34495900      -0.69625500      -1.59970800       0.08079744      -0.15168533      -0.36548337
6
Properties=species:S:1:pos:R:3:forces:R:3 charge=-1.0 dipole_moment="0.07278832531305636 1.2448153030419573 1.5078692944132428" energy=-13.404153573696874 pbc="F F F"
C        0.49539600       1.43764300       2.35079800       1.79899587       1.57839624       1.57276552
H        0.00200600       0.69740800       2.98563800       0.67335654       0.46441943       0.52600095
H        1.48357500       2.03742000       2.72105900      -2.45578114      -2.19457555      -0.58290461
H        0.63363700       0.95460300       1.44053800       0.86726659      -0.83376254      -1.58630649
Cl      -0.67207200       2.68839300       1.99238000      -0.91369917       0.93732915      -0.02300212
Br       0.18096100      -1.65765700      -1.57492800       0.02894960       0.04974005       0.09322872
6
Properties=species:S:1:pos:R:3:forces:R:3 charge=-1.0 dipole_moment="1.543604631442619 -1.0236245207983774 0.9552019074724727" energy=-13.215410784931485 pbc="F F F"
C        1.86784000      -1.23124000       1.71556700       1.56357691       2.54782510      -1.73380298
H        2.13337600      -0.07221200       1.70244700      -1.54152970      -2.45706618      -0.77734636
H        2.39830500      -1.47894300       2.56247000       1.01061794      -1.28003152       1.90637029
H        0.84275000      -1.58819100       1.78204000       0.15123590       0.49905682      -0.68993399
Cl       2.87382600      -2.03971300       0.32415700      -1.21429560       0.71473948       1.22863105
Br      -1.86961500       1.29148300      -0.62431500       0.03088307      -0.02477515       0.06545361
6
Properties=species:S:1:pos:R:3:forces:R:3 charge=-1.0 dipole_moment="2.094546900676951 1.2581929029250112 -1.850537997113858" energy=-11.703181994850073 pbc="F F F"
C        0.83616200       0.51830900      -1.46762700      -6.81008300       1.43461242       0.62910940
H        0.42499200       0.14672100      -2.47981100       0.27646457       0.44165951       2.31486205
H        0.21610900       1.42069300      -0.99054300       0.28103085      -0.78238212      -2.52138799
H        0.44098500       0.13712400      -0.52572100       1.48072208      -2.40048802      -0.10805782
Br       2.40537000       1.27748200      -1.67698300       4.69817099       1.24842649      -0.24195625
Br      -2.57962900      -1.41503600       2.04275000       0.07283422       0.05817584      -0.07226703
6
Properties=species:S:1:pos:R:3:forces:R:3 charge=-1.0 dipole_moment="-1.1402424777535944 1.03865262440118 -1.362021175878111" energy=-11.795561545385102 pbc="F F F"
C       -0.13244600      -0.42815000      -1.82880400      -8.48818456      -0.87448007      -0.54627513
H       -0.71063200      -1.30348400      -1.40559500       1.72976583       0.56446826      -0.23599901
H        0.73956400      -0.65503000      -2.26196100       3.66655279      -0.00966786      -0.73589915
H       -0.97415500      -0.13176700      -2.60487600       2.40807535      -1.02319269       0.27056132
I       -0.88875300       1.06645900      -0.61305400       0.68992216       1.38932552       1.34847789
Br       1.39553700      -1.48180400       1.42106000      -0.00611974      -0.04624181      -0.10017944
6
Properties=species:S:1:pos:R:3:forces:R:3 charge=-1.0 dipole_moment="-0.33711022528085277 1.6980164247763059 -1.4733325437657936" energy=-12.423627948300862 pbc="F F F"
C       -0.31292900      -0.86537500      -1.63309800       2.44114951       0.86224625       3.20232054
H       -1.31493200      -1.07968100      -1.73814000      -2.26163404      -0.85098687       1.21441696
H        0.38492500      -1.39513700      -0.90433700      -1.44534164      -0.50384884      -1.57190780
H       -0.07920900      -0.69290100      -2.63391900       1.71800612       0.81984824      -1.36052557
I       -0.06151900       0.92723800      -0.22650200      -0.49036752      -0.32410249      -1.25629406
Cl       0.36160600      -2.39903700       1.59291700       0.03833361      -0.00319280      -0.22796688
6
Properties=species:S:1:pos:R:3:forces:R:3 charge=-1.0 dipole_moment="1.765451593427298 0.6377379153110131 -2.131028377573222" energy=-12.768827677389174 pbc="F F F"
C       -0.17230200      -0.48474700      -0.33769000      -2.02121634       5.41495758      -0.42405465
H       -0.75258200       0.34159600       0.21254900       0.39386835      -1.44173078      -0.92189173
H        0.25999900      -0.94009000       0.47078100       0.69606504      -2.69424532       1.02930883
H       -0.66833200      -0.64493200      -1.27803800      -0.66506679      -2.02948346       0.76528531
Br       1.20750000       0.57374700      -1.20465500       1.45073993       0.71421652      -0.28080614
Cl      -2.35692800      -0.93701400       2.63433900       0.14501743       0.03610189      -0.16737009
6
Properties=species:S:1:pos:R:3:forces:R:3 charge=-1.0 dipole_moment="-0.11999093249535099 1.3788188480730388 1.232718312008468" energy=-15.480964756717885 pbc="F F F"
C       -0.32243100       0.56572900       0.43489100       0.32881429      -1.45164187      -1.37405420
H        0.00826700       0.85571600      -0.67516900      -1.25606935      -1.17664025       2.58956491
H       -1.34254600       0.79345700       0.75819500      -0.10442022       0.36585721      -0.86668192
H       -0.23823300      -0.56938900       0.66357300       0.57134390       2.01574606      -0.98905769
F        0.47225800       1.32965800       1.28864100       0.52089166       0.07425758       0.45574761
F       -0.08258100      -1.82678700      -1.66152400      -0.06116141       0.17233900       0.18326876
6
Properties=species:S:1:pos:R:3:forces:R:3 charge=-1.0 dipole_moment="-3.35909151766036 0.24117304289168118 2.936532402303711" energy=-12.533477123860074 pbc="F F F"
C       -2.32077900      -0.85126600       0.45720600      -3.33719702       1.27980269       1.82024862
H       -1.68750300      -0.46617400      -0.25331100       0.95376364       0.62272175      -2.01760805
H       -3.42293200      -0.55069900       0.40165300       1.78541736      -0.52830106      -0.67394481
H       -2.26323300      -1.90446600       0.56584000       0.49286046      -0.72706226       0.70952425
I       -1.79680700       0.45830800       2.11937400       0.13464148      -0.63800490       0.15794699
Br       3.32940300      -0.46461000      -3.30812100      -0.02965973      -0.00899783       0.00415953
6
Properties=species:S:1:pos:R:3:forces:R:3 charge=-1.0 dipole_moment="-0.22422825943221641 0.888303324512992 3.2903021845275346" energy=-14.405122059155913 pbc="F F F"
C       -0.33183100       0.11123100       1.93319800       0.29243061      -0.95296197      -4.62472639
H       -0.99751100       0.58655100       2.61243600      -1.26969054      -0.03564269       0.17077268
H        0.42932500      -0.39250000       2.53443300      -0.18528194      -0.51427724      -0.50850202
H       -0.76235900      -0.48598000       0.84392800       0.77395662       1.00292777       4.25858996
F        0.30718000       1.14639300       1.23916000       0.43010291       0.52445418       0.62700161
F        0.06187900      -1.18811100      -3.19360200      -0.04138962      -0.02585656       0.07745809
6
Properties=species:S:1:pos:R:3:forces:R:3 charge=-1.0 dipole_moment="1.5074882868216368 -2.5438130606735463 -0.5204352030453265" energy=-12.710508591342903 pbc="F F F"
C        0.07795900      -2.60319900      -0.44908200       2.70474108       1.66017635      -2.33983569
H        0.30648300      -3.51796500      -0.05621100      -0.18640139      -2.01826214       1.52031861
H       -0.15533200      -2.68615700      -1.48701000       0.37096188      -0.21996869      -0.85207394
H       -0.62738400      -1.92835700      -0.10768200      -0.87143897       1.19832494       1.79358782
Br       2.05063400      -1.78745400      -0.38196400      -2.00125429      -0.54468362      -0.10922201
Br      -2.05039200       2.46607300       0.50611800      -0.01712509      -0.07601004      -0.01301133
6
Properties=species:S:1:pos:R:3:forces:R:3 charge=-1.0 dipole_moment="-1.7858460831224288 0.5012842797950211 1.6292572547444824" energy=-13.738991142572216 pbc="F F F"
C       -1.63958100       0.20510600       0.39091300       0.86162250      -2.39446855       1.62821033
H       -2.52171100      -0.41671500       0.67278000       0.39973355       0.97135513      -0.57541859
H       -0.88501100      -0.49973900      -0.03949600      -0.65355699       1.17603913      -0.31497147
H       -1.82170300       1.12988400      -0.12127400      -0.02657544       0.04490226      -0.23350246
Cl      -0.87747700       0.57065800       2.04146800      -0.42252484       0.20496579      -0.57662392
Cl       1.76370700      -0.65560300      -2.20955600      -0.15824987      -0.00277628       0.07296123
6
Properties=species:S:1:pos:R:3:forces:R:3 charge=-1.0 dipole_moment="1.7436230334915397 -0.9651716061194955 0.29379389553293894" energy=-11.880698993361966 pbc="F F F"
C        0.71238800      -1.50957700       0.76993500      -2.94497109       3.45174173      -7.74898001
H       -0.08988000      -0.73247300       0.80188000      -0.03865448      -0.50365344      -1.29186631
H        1.02365100      -1.27204500       1.60609800       3.22005241      -0.85436530       8.97081820
H        0.46740600      -2.25403300       0.07945600      -0.02229764      -1.78748247       0.32894028
Br       2.28232000      -0.52986300      -0.07005200      -0.31420117      -0.18072183      -0.35674985
Br      -2.44447700       0.91032000      -0.13300600       0.10036662      -0.12495511       0.09752555
6
Properties=species:S:1:pos:R:3:forces:R:3 charge=-1.0 dipole_moment="1.7432758932414099 1.5891800187024299 1.2696686399132986" energy=-12.921729422781885 pbc="F F F"
C        0.34983400      -0.57532200      -0.83742800      -2.09632855      -2.18013881       0.13562262
H       -0.12743900      -0.22287900      -1.76688300       1.09075615       0.51807167       0.29973203
H       -0.59333900      -1.03160800      -0.43402100       1.05847646      -0.17840629      -0.36150176
H        1.09410300      -1.41829000      -0.96213100      -0.57084459       1.56313365       0.24815055
I        0.67351000       0.82539500       0.73095800       0.56871006       0.30801253      -0.27139693
Cl      -2.24519800      -2.21301500      -1.79724500      -0.05048207      -0.02993381      -0.05003933
6
Properties=species:S:1:pos:R:3:forces:R:3 charge=-1.0 dipole_moment="3.3382773904372525 -0.5941231296163414 -1.6452913242245668" energy=-12.599712572074393 pbc="F F F"
C        1.94629200      -0.73743600       0.07074300      -0.18120468       5.10797195      -0.29991149
H        1.58207000      -1.32299600       0.85142700      -1.43691305      -1.34765616       0.43822194
H        2.51771900       0.11797200       0.65307700      -1.09123951      -1.52384771      -1.86989251
H        2.43525500      -1.13835600      -0.76184500       1.05920459      -0.94381245      -0.41284207
Cl       0.55458800       0.20103800      -1.12806000       1.64450599      -1.27138644       2.09241019
F       -3.07119800       0.37226000       2.00110000       0.00463981      -0.02033331       0.05095978
6
Properties=species:S:1:pos:R:3:forces:R:3 charge=-1.0 dipole_moment="0.7555507544076834 -0.19740320827431415 2.6833957210356028" energy=-12.957110231261273 pbc="F F F"
C       -0.00122700      -1.04561200       0.48674300       0.44052565      -0.59192044       0.39956180
H        0.73074100      -0.94890100      -0.26173200       1.37055493       0.17793681      -0.60699894
H       -0.87216800      -0.83187100      -0.09531000      -1.08698999       0.63713484       0.56694886
H        0.03240800      -2.04734500       0.89374000      -0.26394896      -0.03805233      -0.01839727
I        0.62032600       0.19992600       2.14522100      -0.49046728      -0.10364118      -0.52031881
Br      -0.93602600      -0.01412200      -3.34725400       0.03034005      -0.08073676       0.17968207
6
Properties=species:S:1:pos:R:3:forces:R:3 charge=-1.0 dipole_moment="-0.26099020025008646 -0.836115868007186 2.841999127054165" energy=-13.886196461763825 pbc="F F F"
C       -0.64413000      -0.22501900       0.25261100       3.51814202       1.35142694      -1.24663031
H       -1.19177600       0.67238500       0.39787600      -0.77949169       0.37063843      -0.14001046
H       -1.16912600      -1.07927400      -0.06326500      -0.78050265      -1.02664517       0.27385439
H        0.17343500      -0.02802300      -0.51863800      -1.54424633      -0.09381596       0.65452321
Cl       0.33073400      -0.40466300       1.76682300      -0.38587428      -0.50581368       0.19914070
F        0.04775300       0.96269900      -3.48529100      -0.02722027      -0.09581885       0.26032524
6
Properties=species:S:1:pos:R:3:forces:R:3 charge=-1.0 dipole_moment="1.2919544089589843 2.6529717356686557 -0.4784449913870857" energy=-13.418479871224196 pbc="F F F"
C       -0.21815200      -0.07504800      -1.22755200      -0.05193012      -0.63842862      -1.66862139
H        0.31528900      -1.07331200      -1.32623000      -1.01619569       1.41123029       0.12857162
H       -0.00196700       0.65402700      -2.04184800       0.02005306      -1.00367905       0.27829571
H       -1.31611500      -0.19349000      -1.19115900       0.81281113      -0.27913132       0.51050543
Br       0.47286000       0.83662500       0.28752000       0.14042030       0.30365913       0.93320510
F       -1.58204400      -3.13542500       0.20681500       0.09456775       0.20582865      -0.18210251
6
Properties=species:S:1:pos:R:3:forces:R:3 charge=-1.0 dipole_moment="0.7539626935987813 1.6804350411325324 -0.6265225335103232" energy=-11.648295993067496 pbc="F F F"
C       -0.29068700       1.50592400       1.22974300      -4.59295475      -1.22357420      -2.99169730
H       -0.83085600       2.40402800       0.60326000       2.61850010      -1.01049555       2.71319127
H        0.21090500       1.19579300       2.16481600       0.37009284       1.52945683      -0.75599643
H       -1.29141900       0.94758900       1.34295800       1.55510204       0.09283329      -0.00123516
I        0.44341600       0.39784400      -0.55943900       0.27704770       0.73613054       0.72914280
Cl      -1.16738700      -2.03933400       1.06828000      -0.22739867      -0.12235932       0.30622407
6
Properties=species:S:1:pos:R:3:forces:R:3 charge=-1.0 dipole_moment="-0.8910762130963465 -2.457536008263218 -0.65031116583401" energy=-13.100437960209376 pbc="F F F"
C        0.13272300      -1.23799600      -1.08070500      -6.66056717      -1.85559460       0.04443741
H       -0.12317100      -2.27698800      -0.85959800       1.12295253      -0.30726536      -0.81144228
H        1.10428900      -1.03369900      -1.20084900       3.35710816       1.19441738      -0.27659878
H       -0.60610300      -1.00324100      -1.92686900       1.75719899       0.21178024       0.99280893
Cl      -0.66584800      -0.63858200       0.41083400       0.37472546       0.83654550       0.15040440
F        1.12756100       2.51086700       0.38748500       0.04813928      -0.08041691      -0.09851902
6
Properties=species:S:1:pos:R:3:forces:R:3 charge=-1.0 dipole_moment="1.1974063167475428 1.0158456158030889 1.1399694223129435" energy=-12.902589572556222 pbc="F F F"
C        1.47209000       1.07397700       1.48613600      -0.92294074      -7.00166568      -3.11617778
H        1.48796900      -0.00526000       0.72827700       0.50298032       1.14634546       3.38705483
H        0.95842200       0.74741000       2.50995700       1.84224800       1.32253443      -2.22455822
H        2.54264900       1.18775800       1.16005300      -1.13189534       1.61960434       1.34468963
F        0.50859000       1.45934600       0.56005900      -0.38135685       2.97535588       0.57378028
Cl      -1.08228800      -1.26517000      -1.07974300       0.09111219      -0.06295912       0.03510636
6
Properties=species:S:1:pos:R:3:forces:R:3 charge=-1.0 dipole_moment="1.8375466965945157 0.4778628964554655 -0.36724898413130574" energy=-15.595332773811155 pbc="F F F"
C        0.90600200       0.07751400      -0.56933000       2.86542321      -1.01081900      -1.40197072
H        1.70869000      -0.64061700      -0.93413800      -0.43363818       0.86999864       0.42543173
H        0.72714200       0.74409300      -1.41098900      -0.38674485       0.32420945       0.46041982
H        0.13093600      -0.52826600      -0.28441500      -2.79541207      -0.95645045       0.36596931
F        1.36542300       0.71104700       0.55666800       0.45835831       0.79225002       0.24978269
F       -2.25462100      -0.71552400       0.11505700       0.29265121      -0.01883899      -0.09897308
6
Properties=species:S:1:pos:R:3:forces:R:3 charge=-1.0 dipole_moment="0.22147230451959996 -0.602144397774068 0.7449190550702453" energy=-14.88893661410745 pbc="F F F"
C        1.09871700      -1.90932300       2.81204500       0.39732391      -2.41821167      -3.91850138
H        0.94278000      -1.54332300       1.70244100       0.88645936      -0.54308285       1.96910779
H        0.07580300      -1.80855300       3.16863400       0.19337371      -0.70047243       0.80348780
H        1.65411000      -3.00277400       2.76505600      -2.22717509       2.43090366       0.21355687
F        1.95825400      -1.14310100       3.49316200       0.73726183       1.30022805       0.87093195
I       -0.50734500       0.53016000      -1.05560100       0.01419763      -0.06833941       0.06280074
6
Properties=species:S:1:pos:R:3:forces:R:3 charge=-1.0 dipole_moment="-0.7211801654043514 0.8388257845024835 1.5802178734643209" energy=-12.55044250902329 pbc="F F F"
C       -1.89426100       0.71087900       2.07135100      -2.61314655      -0.85637179       1.65411831
H       -1.66824700      -0.37373000       2.00552500      -1.03433637       0.67124824       0.64971370
H       -2.70670800       0.95445700       1.39098900       1.03557410       0.36312721      -1.25397750
H       -2.35740600       1.18778100       2.98653300       0.46576926      -1.74725293      -0.30127726
Br      -0.21281700       1.42912100       2.09309200       2.20896088       1.58780185      -0.78635705
I        0.48201000      -1.05760400      -1.73715800      -0.06102977      -0.01861479       0.03756073
6
Properties=species:S:1:pos:R:3:forces:R:3 charge=-1.0 dipole_moment="-1.6405959348352337 1.6202051493805774 -0.8197362458086033" energy=-12.21156988308395 pbc="F F F"
C       -1.73537900       0.30664000      -1.76184600       2.35156507       0.79321264       3.35205594
H       -2.73738200       0.09233400      -1.86688800      -2.28547845      -0.83451536       1.16634093
H       -1.03752600      -0.22312200      -1.03308500      -1.24423559      -0.40824802      -2.02245407
H       -1.50165900       0.47911500      -2.76266700       1.79155459       0.73512473      -1.25652032
I       -1.48396900       2.09925300      -0.35525000      -0.50948007      -0.33077656      -1.16499727
I        1.77998500      -2.14053900       0.66154600      -0.10390857       0.04524885      -0.07436711
6
Properties=species:S:1:pos:R:3:forces:R:3 charge=-1.0 dipole_moment="1.9349195367559473 2.282835031499303 0.5368777973319663" energy=-11.7726013886861 pbc="F F F"
C        0.75691500       0.90188700      -1.72621000       2.02365631      -4.09141425       2.73396115
H        1.66603700       0.08704900      -1.87712900      -1.67675328       3.18142107       0.04394170
H        0.79350500       1.99324900      -1.85844100      -0.15783849      -1.09628247      -0.45559849
H       -0.04702900       0.15189100      -1.71522100      -0.80084624       1.36802239      -1.24956703
I        0.55538300       0.67243800       0.62487100       0.47933543       0.49130648      -0.98253995
Cl      -2.14054600      -2.54604400      -1.01824300       0.13245759       0.14717458      -0.08971248
6
Properties=species:S:1:pos:R:3:forces:R:3 charge=-1.0 dipole_moment="0.1044749275044086 -1.2694109306117543 1.9633871539754397" energy=-11.9703349059954 pbc="F F F"
C        1.28981000      -1.67111400       2.57202600      -3.06827967       4.36909856       2.61556596
H        2.00333100      -2.11977600       1.96507600       0.32503374      -2.28318503      -0.95218602
H        1.27930600      -1.69139700       3.71237100       0.55164977      -0.60233701      -1.95407300
H        1.42665500      -0.58887700       2.26821000      -0.62494112      -1.08930142       0.50727355
Br      -0.96951300      -1.75081100       2.41263900       2.76374584      -0.38584599      -0.24703315
I        0.40537400       1.42839800      -2.03434300       0.05178871      -0.00886671       0.03087329
6
Properties=species:S:1:pos:R:3:forces:R:3 charge=-1.0 dipole_moment="1.3562282729540684 -1.3861849948440876 -2.773163755504021" energy=-12.32932162683273 pbc="F F F"
C        0.18609900      -0.71043800      -1.47782300      -1.44162588      -3.61174355       1.77435648
H       -0.41108700      -1.55665500      -0.76068600       2.52458284       2.54994009      -1.78805480
H       -0.52469100      -0.51244000      -2.19592000      -1.36175507      -1.43858323      -3.30500989
H       -0.05518300       0.27827500      -1.22461400       1.93045073       1.77531447       2.46778357
Cl       1.80348800      -1.21068500      -2.19551800      -1.65393474       0.75053027       0.92833955
Cl      -1.81087900       1.56677000       2.96305700       0.00312235      -0.02591055      -0.07766789
6
Properties=species:S:1:pos:R:3:forces:R:3 charge=-1.0 dipole_moment="0.6047701750928858 3.1353643890465475 -0.33167240026509875" energy=-13.03719936723818 pbc="F F F"
C        0.79964600       0.47475400       0.00034800       6.21330163      -0.50665597       2.84959190
H        0.60818900      -0.33771500       0.66338800      -0.82770605      -0.36367588       0.46185244
H        1.94999500       0.84952500       0.25973100      -2.94254706      -0.48510601      -0.06109970
H        1.00228000       0.12995200      -0.91424200       0.39267227      -2.03941924      -3.46705111
Cl      -0.25625000       1.70009000      -0.18614800      -2.92764648       3.19810856       0.19933507
F       -0.44467700      -3.59909100       0.35039400       0.09103763       0.19709718       0.01740431
6
Properties=species:S:1:pos:R:3:forces:R:3 charge=-1.0 dipole_moment="-1.9159601756558657 3.8827160717537548 1.4634395758143026" energy=-11.38255602914403 pbc="F F F"
C        0.44264900       2.54857300       0.14496100      -1.29325110      -2.87124162       7.20743262
H        1.07001600       1.78093700      -0.03866800       1.80204212      -2.04053355      -2.90773123
H        0.85300800       2.63705500       1.23419600      -1.34165984       0.62873916      -1.46344426
H        0.17481700       3.45690200      -0.19870700      -0.98360901       2.21937642      -2.03672369
Br      -1.30863400       1.09763800       0.71165400       1.79123526       2.04224025      -0.79849266
Cl       2.41461500      -3.62256900      -1.57496900       0.02535931       0.02146049      -0.00095234
6
Properties=species:S:1:pos:R:3:forces:R:3 charge=-1.0 dipole_moment="-0.010035845798343249 -2.7058365390039834 -2.938537983931748" energy=-12.558232682832621 pbc="F F F"
C       -0.18675600      -2.16366600      -1.98392000       0.34158856      -2.36041120       1.89895163
H       -1.25131400      -2.19990500      -2.08508800      -0.40671101       0.25737927      -0.94034608
H        0.02032900      -3.21170700      -1.51758000       0.02804302       2.09494478      -0.10103356
H        0.43496800      -2.17990600      -2.86590400      -0.24090107       0.79603365      -0.31021750
I        0.04906500      -0.47777500      -0.61505900       0.27239297      -0.70842331      -0.44008856
Cl      -0.04023000       2.69974100       2.99824800       0.00587908      -0.07920798      -0.10710034
6
Properties=species:S:1:pos:R:3:forces:R:3 charge=-1.0 dipole_moment="-1.1739605912563014 -2.7467260620642513 4.499854176611938" energy=-11.612036290159356 pbc="F F F"
C       -1.55788800       0.24560900       0.41598100       1.41830443       0.85982530       2.47929902
H       -1.64831100       1.14004500       1.13717500       0.43287662      -1.34711829      -2.08474367
H       -2.42707700      -0.10831200      -0.04098300      -1.76151896      -1.18217790       0.51469838
H       -0.82575100       0.03440100      -0.30225700       0.76702287       2.32014361      -1.79627462
I       -0.03380700      -1.02417600       1.47876400      -0.83422431      -0.63815608       0.86681201
Cl       0.94354300       3.04362100      -4.80378200      -0.02252235      -0.01238912       0.02023458
6
Properties=species:S:1:pos:R:3:forces:R:3 charge=-1.0 dipole_moment="2.7070488839933855 0.2697359120090751 0.4669343287029011" energy=-12.965947199604337 pbc="F F F"
C        2.86336800      -0.07547400      -0.09291500      -1.57069424      -2.48213032      -2.27120935
H        2.88623300       0.58687900      -0.94014200       0.38735060      -0.15159071      -0.60463969
H        1.83450100       0.01644500       0.23047000      -0.16091507      -0.57466731       0.21675995
H        3.12421500      -1.18509400      -0.39160400      -0.46765902       2.44628451       0.74277685
Br       3.92453900       0.65238600       1.19441800       1.75852414       0.76081057       1.91678943
I       -3.06385000      -0.41130000      -0.75746900       0.05360596       0.00174064       0.00046177
6
Properties=species:S:1:pos:R:3:forces:R:3 charge=-1.0 dipole_moment="1.7766913173796741 1.471938161815958 3.130395415039353" energy=-13.269453870227652 pbc="F F F"
C       -0.19216300      -0.38528300      -0.52899200      -1.13157858       1.02318806       0.71073370
H        0.69659900      -0.61055800      -1.10984100      -0.42868315      -0.74951982       0.18235088
H       -0.68929300       0.47187600      -0.99588400       0.05042088      -0.51000252       0.00908422
H       -0.99647800      -1.15528200      -0.25108700       1.93271382       0.97550644      -0.40446181
Br       0.60531200       0.56446400       1.13203900      -0.54679038      -0.83261840      -0.73118374
F       -2.11597400      -1.79450800      -3.78784500       0.12407476       0.09407924       0.23380174
6
Properties=species:S:1:pos:R:3:forces:R:3 charge=-1.0 dipole_moment="0.410784393244393 -2.444888672930742 -2.430182838249173" energy=-13.821000022603187 pbc="F F F"
C        0.27157500      -1.42160500      -0.84292900      10.67983986       4.00085176      -0.46857793
H        0.80204500      -0.57034600      -0.15140900      -2.15645277      -2.52144661      -1.21625890
H        1.02205800      -2.37232800      -0.90190500      -0.33343765       2.46061327      -0.43291981
H       -0.41715700      -1.99962000      -0.64583200      -8.21626982      -4.16312695       3.29300850
F        0.04795400      -0.87272600      -2.05810000      -0.00812572       0.29178989      -1.13331870
F       -0.38533100       2.36960600       2.80884600       0.03412317      -0.06817332      -0.04305467
6
Properties=species:S:1:pos:R:3:forces:R:3 charge=-1.0 dipole_moment="-0.31874989278312976 1.3406228370145408 1.593082700630338" energy=-14.472328858266696 pbc="F F F"
C        0.03629900       0.46112300       1.11485300       2.73886116      -7.47741442      -2.19877879
H       -0.55307600      -0.41416000       1.45107000       0.02850222       0.82282352       0.40273249
H        1.00435300       0.44879200       1.56330500       0.32973012       2.19785165       2.00179731
H        0.49839800       0.03343800       0.20725100      -0.44730565      -0.93729573      -0.29481711
F       -0.67248400       1.40205000       0.63362500      -2.68770443       5.25834396      -0.11554179
F        0.54276600      -1.71702900      -1.73481900       0.03757616       0.13613838       0.20391781
6
Properties=species:S:1:pos:R:3:forces:R:3 charge=-1.0 dipole_moment="-2.365835947799031 1.0430093403757519 -1.1784083257110902" energy=-12.713860468881997 pbc="F F F"
C       -3.90579200       0.85991100      -1.68223400      -1.93887058       1.97443254      -3.51087660
H       -4.67819000       1.50788200      -1.18506800       0.70090437      -0.94703507      -0.51688691
H       -4.06002200      -0.18606000      -1.49365000       0.41662982      -0.28344409       0.37581818
H       -3.99435500       1.04924700      -2.88597800      -0.18792709      -0.69799902       3.07147503
Br      -2.22560200       1.61107600      -1.29162300       1.00457790      -0.03859997       0.57706049
I        2.15214000      -1.20600400       1.14839400       0.00503319      -0.00752099       0.00378929
6
Properties=species:S:1:pos:R:3:forces:R:3 charge=-1.0 dipole_moment="-2.080185560359459 -2.8500029323639433 0.32335479286945623" energy=-12.848149667946867 pbc="F F F"
C        0.93164900      -0.50447800       0.63640200       1.25318200      -3.19320495       1.24792821
H        1.64397800      -0.33521600      -0.13550300      -0.04727025       1.02352899      -0.77263096
H        1.26336300      -1.52759900       1.01193200      -0.53432670       1.10475477      -0.28730537
H        1.03557000       0.12487400       1.49703300      -0.46197019       0.87691594      -0.15298631
I       -1.01720900      -0.91727000      -0.04408500      -0.18581107       0.34901134      -0.08442372
Cl       2.61054500       3.14000800      -0.22678600      -0.02442600      -0.16135370       0.04930142
6
Properties=species:S:1:pos:R:3:forces:R:3 charge=-1.0 dipole_moment="1.7813851192373753 0.7487487105430958 -0.8710415639043995" energy=-13.088496100857027 pbc="F F F"
C        2.81269900       0.88041800      -0.80228600       0.08802121       0.55380126      -1.50411089
H        2.51190900      -0.15663100      -0.39035200       0.03004180       2.32607155      -0.63360574
H        2.96580200       1.78677500      -0.17200600      -1.09264076      -1.18758647       0.12283549
H        3.76838400       0.86983600      -1.33339800      -0.18917921      -0.73888677       0.03457517
Cl       1.68847800       1.51321300      -2.29718800       1.08349535      -0.94150668       1.96510664
Br      -1.56646900      -0.95734600       1.30747600       0.07935145      -0.01133034       0.01404542
6
Properties=species:S:1:pos:R:3:forces:R:3 charge=-1.0 dipole_moment="-0.15825838247727517 1.0635001403232052 0.8220789133197693" energy=-13.592112855557774 pbc="F F F"
C       -0.46769500       2.44842800       1.80037300       3.33734512       0.48264084       1.57796275
H        0.36614800       2.85749500       1.25354500      -0.46108214       0.07318131      -0.84793806
H       -1.19731600       3.15738600       2.01985100      -1.23351152       0.93361596       0.37415107
H       -0.77677500       1.52282400       1.46096700      -0.70549945      -1.66158326      -0.79574929
Cl       0.52341600       2.12658200       3.36668200      -0.90025024       0.08217092      -0.36413303
I       -0.08460300      -1.10151300      -1.37302300      -0.03647162       0.08980350       0.05622592
6
Properties=species:S:1:pos:R:3:forces:R:3 charge=-1.0 dipole_moment="-2.6367101199880287 -0.22233909679050348 0.11178868573161144" energy=-13.591508991256674 pbc="F F F"
C       -1.45932200      -0.60864700      -0.53186500      -2.91420424       2.04709244      -2.02816037
H       -1.61954100      -1.66996600      -0.53165800      -0.50411058      -0.25975960       0.32610384
H       -0.47206400      -0.38217600      -0.34388800       2.30168258       0.43309053      -0.20750347
H       -1.91078800      -0.08488200      -1.49288000       1.46868057      -1.50790995       1.81067537
Cl      -2.31871800       0.32953600       0.76802400      -0.19788754      -0.67112842       0.11654503
Cl       3.06920800       0.01098800      -0.44098700      -0.15495731      -0.04040695      -0.01666281
6
Properties=species:S:1:pos:R:3:forces:R:3 charge=-1.0 dipole_moment="-0.5455446616865807 1.3281077959847059 0.5338128029283804" energy=-13.396109006186894 pbc="F F F"
C        0.08015800       0.75318700       0.46667200       5.78042655      -2.13591017      -4.97817649
H        0.50671300       1.70952800       0.62999100       1.61620637       0.49020965       2.88549684
H        0.52153800       1.01986900      -0.73051200      -0.35821846      -2.23844320       2.37392492
H        0.39063400      -0.51875500       0.71935900      -0.66391442       3.69111043      -1.27154996
F       -1.14259800       1.09755600       0.25706700      -6.25737291       0.04037764       0.36603924
F        0.93150600      -1.84530700      -0.63694100      -0.11829698       0.15322696       0.62407980
6
Properties=species:S:1:pos:R:3:forces:R:3 charge=-1.0 dipole_moment="0.5953455289727438 1.3274304491551843 -1.6947746851843914" energy=-13.088847026527336 pbc="F F F"
C        1.13731600       1.71638100      -2.94289500       2.19167381      -2.95172692      -4.54912773
H        1.13374900       0.56579400      -2.96799400      -0.07026260       1.65271861       0.12582260
H        2.25720200       1.95258800      -3.25544300      -2.28115643       0.18735939       1.29830178
H        0.49031600       2.01495700      -3.80771700       0.69732282      -0.10225535       0.68987845
Cl       0.45583300       2.22933200      -1.52138600      -0.54357907       1.22403649       2.45303263
Br      -0.52726600      -1.50657900       1.53006000       0.00566928      -0.01043097      -0.01749636
6
Properties=species:S:1:pos:R:3:forces:R:3 charge=-1.0 dipole_moment="-0.18386791358251225 0.7162254791818421 -2.2664977434775655" energy=-14.752492462532473 pbc="F F F"
C       -0.36645700       0.50596300      -2.21412400      -0.44734062      -2.21136537      -2.10828830
H       -1.35669900       0.96800300      -2.03592900       0.69504071      -0.01977796       0.10330693
H       -0.07060800      -0.15805000      -1.27219500      -0.31090759       1.43393982      -2.34388004
H       -0.40298300       0.02950000      -3.33019800      -0.67834345      -0.42951413       3.23039648
F        0.56450500       1.44479000      -2.59568500       0.76065579       1.21305993       1.24861726
Cl      -0.06185400      -0.99284400       2.54613100      -0.01881945       0.01394309      -0.12940003
6
Properties=species:S:1:pos:R:3:forces:R:3 charge=-1.0 dipole_moment="3.524940418045963 0.17695633003533792 -0.34874259872346713" energy=-12.796949113924246 pbc="F F F"
C        1.54027900      -0.71152000      -1.50531100      -1.27789545       0.04032776       0.00909348
H        2.31465900      -1.16880400      -2.10265400       0.32251509       0.06094801       0.24226324
H        0.89664000      -0.08411100      -2.12123600       0.54879944       0.55138648       0.10693322
H        0.80689500      -1.43418200      -1.15439000       0.47727906      -0.27367235       0.39837961
I        2.28069700       0.37131300       0.21504000      -0.12156948      -0.35832490      -0.71650017
Br      -3.83248000      -0.36352500       0.08608700       0.05143749      -0.02055957      -0.03967007
6
Properties=species:S:1:pos:R:3:forces:R:3 charge=-1.0 dipole_moment="1.3245305580412945 -2.7508113101298037 -0.23089589228532081" energy=-13.393407102384973 pbc="F F F"
C       -0.40026000      -0.71393200       0.37444900       2.04132494      -0.29766332       0.47152081
H       -1.00120500      -1.56070400      -0.09034500      -0.01875774       2.10274448       1.06935531
H       -0.40809300       0.38206900       0.12641400      -1.03530413      -1.30423331      -0.40408129
H       -0.24230100      -0.70915400       1.52402400      -0.28764733      -0.73187074      -2.12894763
Cl       1.24535800      -1.30882600      -0.49519500      -0.82663133       0.50270573       0.99641876
F       -1.90199200       3.15793600       0.51239300       0.12795867      -0.27242177      -0.00474266
6
Properties=species:S:1:pos:R:3:forces:R:3 charge=-1.0 dipole_moment="0.30336671127203885 -2.3697243419422542 -0.4250933450180392" energy=-13.305606692299543 pbc="F F F"
C        0.15147200      -3.27781200      -1.09001600      -1.70730879      -0.64589510       3.08671448
H       -0.64342600      -2.53169200      -0.78703200       1.21800622      -0.64498647      -1.01767665
H       -0.34786200      -4.27193700      -1.31758500       1.12813947       1.33325850       0.03569103
H        0.99089700      -2.94809000      -1.62961000       0.03288801       0.41361185      -1.64231489
Cl       1.11028400      -3.44125000       0.52105600      -0.65584784      -0.42126346      -0.43168208
Br      -0.56523600       2.51199600       0.04046800      -0.01557729      -0.03481274      -0.03012099
6
Properties=species:S:1:pos:R:3:forces:R:3 charge=-1.0 dipole_moment="0.7023446317715419 -0.8121145064448523 -0.732380201065935" energy=-11.586778496521758 pbc="F F F"
C        1.70612400      -0.37814900      -1.26852900      -2.50583178       5.10421763       0.32923750
H        2.45769200      -0.31025900      -1.95320500       2.82660726      -2.40066337      -1.84594062
H        2.17855400       0.26518700      -0.35988100      -2.25319157      -1.51373607      -1.94069247
H        0.98037300       0.23289100      -2.08209900       1.41325787      -0.56613999       3.19376391
Br       0.52699200      -1.76979100      -0.79681800       0.78715872      -1.08407076      -0.05115724
I       -0.64713400       1.20799600       0.75273500      -0.26796399       0.45985983       0.31464649
6
Properties=species:S:1:pos:R:3:forces:R:3 charge=-1.0 dipole_moment="-1.4581689707970868 -1.449982599349664 -0.8214259086419338" energy=-14.561411634912151 pbc="F F F"
C       -1.60724500      -1.68075900      -0.68998600      -0.08745917       0.16482007      -4.35735067
H       -2.24694400      -1.20917900       0.01560100      -1.42372791      -0.01014095       0.09176319
H       -0.89011600      -2.19347800      -0.10745900       0.92721340      -0.98938885       0.11978051
H       -1.99397400      -2.22620500      -1.71869800      -0.00147016       0.27170700       3.66420743
F       -0.98766800      -0.65034200      -1.39032700       0.60034183       0.60890207       0.40530770
Cl       1.39197200       1.26861700       1.08608300      -0.01445629      -0.04677248       0.07681788
6
Properties=species:S:1:pos:R:3:forces:R:3 charge=-1.0 dipole_moment="3.4546646261286633 3.811906869208207 0.5764962367324599" energy=-12.81904203246217 pbc="F F F"
C        0.37395000       1.59564700       0.54679700       0.18185157      -2.13427187       5.44278926
H        0.16021600       0.68965500       1.32409200      -0.41219518       2.28902452      -2.01668040
H       -0.35231100       1.70745600      -0.19725200      -1.21087552       0.72220082      -0.50372697
H        0.80158200       2.37412000       1.20455300      -2.10175358       0.55338886      -0.41425720
Cl       1.84267300       1.14919100      -0.10375500       3.54204094      -1.44977628      -2.51577424
F       -3.79762600      -3.76459600      -0.42759300       0.00128504       0.01932904       0.00755236
6
Properties=species:S:1:pos:R:3:forces:R:3 charge=-1.0 dipole_moment="-0.052028703342636866 -1.4329325096252974 1.131957679345007" energy=-13.045085884853865 pbc="F F F"
C       -0.72601900      -1.82403500       0.21580200       1.00132083      -3.29773007      -1.59773813
H       -0.32103800      -1.32475900      -0.61955900      -0.38861919       1.00811883      -1.21308873
H       -1.79483500      -1.74799700       0.30182500      -0.13014102       0.35328708       0.35363830
H       -0.42682700      -2.94046300      -0.03452200      -0.67700494       1.99778330       1.17436431
Br       0.32429400      -1.07836400       1.57902200       0.22256551       0.06760562       1.30225202
Br      -0.12718500       1.56286200      -1.60595200      -0.02835361      -0.12877063      -0.01937635
6
Properties=species:S:1:pos:R:3:forces:R:3 charge=-1.0 dipole_moment="1.3874497283773353 0.3486378216357755 1.8070131715449822" energy=-13.34403369063143 pbc="F F F"
C        0.18072200      -0.45054800      -0.17841000      -4.40558560       0.58707186      -1.30002545
H        0.90161000      -1.04456100      -0.64193400       0.83088650      -1.30661467      -0.40324105
H       -0.15354600       0.31101600      -0.92287500       0.29513798      -0.77088415       0.62689825
H       -0.81878800      -0.93643700       0.14829900       2.15238220       0.36314110      -0.90215286
Br       0.86309000       0.41673500       1.29253900       1.27420283       1.16136636       2.18789994
Cl      -1.83657400      -0.60073200      -2.51481700      -0.14688148      -0.03329373      -0.20889546
6
Properties=species:S:1:pos:R:3:forces:R:3 charge=-1.0 dipole_moment="-2.637334549096494 -1.1929188940019615 -0.43302041963228555" energy=-15.085267402707835 pbc="F F F"
C       -1.51404200      -0.81193600      -0.59385300      -1.83516976       0.36262327      -1.17826776
H       -1.17787700      -1.85862500      -0.68803700       0.18874367       0.60061643       0.09588827
H       -1.19637900      -0.17422300      -1.46221700      -0.14493207      -0.85688756       0.77205092
H       -2.68000100      -0.84138500      -0.58825500       1.88107732       0.12912132       0.09466700
F       -1.06164700      -0.22655100       0.54735300      -0.08062055      -0.21340826       0.28282497
F        2.63259200       1.08720100       0.15282700      -0.00786089      -0.02177005      -0.06643063
6
Properties=species:S:1:pos:R:3:forces:R:3 charge=-1.0 dipole_moment="-0.2070352918609972 -1.9290096856683703 -0.08034497587990799" energy=-12.305972164316831 pbc="F F F"
C        1.08540000      -0.43418600      -0.24073700      -4.56247021       5.22354613       2.86698439
H        1.81778500      -0.92947400      -0.60361000       4.09241030      -3.84749470      -3.94780733
H        1.44668200      -0.29064800       0.76128600      -0.17645894       1.03312178       0.42676716
H        0.57175900       0.48986900      -0.66095300       2.93267865      -0.33976925       0.28010217
Br      -0.60586300      -1.15776500       0.01703500      -2.17139551      -2.59231701       0.35578620
Cl       0.63862100       2.57983200       0.07949800      -0.11569399       0.52236284       0.01835768
6
Properties=species:S:1:pos:R:3:forces:R:3 charge=-1.0 dipole_moment="-0.07007840881775892 0.07629888692793686 0.6162115155624867" energy=-15.55161602847217 pbc="F F F"
C       -0.08138900       0.54313400       2.74681500      -0.46993342      -0.68976687      -1.76401858
H        0.28576500      -0.49794800       2.74585600      -0.16131925       0.51374862      -0.07351093
H        0.28643900       1.06682800       1.84187000      -0.29117077      -0.48413876       0.50516473
H       -1.18571600       0.54214800       2.74876300       0.50207426       0.00421558      -0.03013899
F        0.37185200       1.18264100       3.85512700       0.43375851       0.65562621       1.32728223
I       -0.04235500      -0.28327600      -1.10402900      -0.01291979       0.00111483       0.03639088
6
Properties=species:S:1:pos:R:3:forces:R:3 charge=-1.0 dipole_moment="0.6826438933994607 0.38844253141438756 0.04821333565447156" energy=-15.09517651474121 pbc="F F F"
C        1.89337300       1.16885100      -0.00868400      -3.76515975      -2.82653990      -2.55770379
H        1.26109800       1.56044700       0.71907100      -0.61136364       0.78090477       1.67262717
H        2.69154400       0.60151300       0.33355800       1.57253463      -0.82863062       0.86458852
H        1.07236900       0.37228100      -0.53379800       2.40156634       2.23849000       0.87642948
F        2.33204100       2.17860000      -0.80973600       0.46228953       0.71183619      -0.88140611
Br      -1.06781800      -0.83299300       0.19488300      -0.05979666      -0.07527882       0.02584319
6
Properties=species:S:1:pos:R:3:forces:R:3 charge=-1.0 dipole_moment="0.5891647391533581 -1.0206135024702692 0.76270840535777" energy=-13.501109233308387 pbc="F F F"
C       -0.32656100      -1.00777200      -0.95051600      -0.64354357       1.37605709      -0.39883521
H        0.05200900      -1.98212000      -0.90703100       0.57874302      -1.63446120       0.37062969
H        0.01065000      -0.47035600      -1.84507300      -0.23024025       0.07174201       0.73675275
H       -1.42398800      -0.96360100      -0.92949400       0.69906500       0.09736666       0.10111790
Br       0.34734100      -0.05278700       0.63194000       0.01745728      -0.62859466      -0.25543912
F       -0.98180300       1.25669500      -1.41480000      -0.42151491       0.71743245      -0.55492484
6
Properties=species:S:1:pos:R:3:forces:R:3 charge=-1.0 dipole_moment="2.2151252198760276 3.4807901050142007 -0.6994452698348627" energy=-12.625134149100466 pbc="F F F"
C        0.15044100       1.60975700       0.31759700      -5.08061233      -0.38065699      -0.92766283
H       -0.06007600       2.48781000      -0.33277300      -0.31439349       0.53807897       2.36274782
H        0.64016700       1.49156200       1.23968500      -0.41975628       1.52202325       1.75837707
H       -0.86305700       0.97885200       0.31372300       2.32216347       1.14588420       0.14313435
Cl       1.29441400       0.95587300      -0.66723200       3.49421688      -2.88047908      -3.34602362
F       -2.51385800      -3.42962400       0.91297100      -0.00106341       0.05484832       0.00907908
6
Properties=species:S:1:pos:R:3:forces:R:3 charge=-1.0 dipole_moment="1.9672427391316076 -0.700699419823899 -0.1815342420839257" energy=-13.577540272560748 pbc="F F F"
C        1.50174100      -0.35022100       0.07413100       6.73697573      -1.25546823      -6.51561762
H        2.07935400       0.42383300      -0.79703500      -0.80153119      -2.11510738       2.40733436
H        2.28545000      -1.39569100       0.08823100      -2.62394210       2.66440561      -0.01512837
H        1.64930400       0.15668100       0.91143800      -0.37886236       1.87822134       4.14947542
F        0.33951800      -0.48751700      -0.42820400      -2.89549072      -1.26649620      -0.12590950
F       -2.00891300       0.81157300       0.35626800      -0.03816597       0.09429676       0.09990228
6
Properties=species:S:1:pos:R:3:forces:R:3 charge=-1.0 dipole_moment="-0.9956596219289208 -0.7710006122473052 -0.4701527844975503" energy=-14.701683496510668 pbc="F F F"
C       -3.27629300      -2.57450300      -1.83006700       4.16045558      -2.10516286       3.25149238
H       -2.28321400      -1.94259500      -1.71263300      -1.47750048      -1.31794347      -1.94382047
H       -2.99384200      -3.64542800      -1.39714100      -0.61329454       2.43726560      -0.37135269
H       -3.82084700      -1.99378100      -1.14291900      -1.77527642       0.17518470       0.72617626
F       -3.90597000      -2.84998500      -2.97257600      -0.25897747       0.83665760      -1.64962968
I        1.20583700       0.91846600       0.79219400      -0.03556453      -0.02631473      -0.01419455
6
Properties=species:S:1:pos:R:3:forces:R:3 charge=-1.0 dipole_moment="1.0223650790372356 -2.0896678867955525 0.4370580417488877" energy=-15.029213252772657 pbc="F F F"
C        0.19923200      -1.46060300       0.26273800       1.38291062       2.61801314       1.57834738
H       -0.63028100      -0.73679200       0.34720200      -0.41008019      -1.06822454      -0.64940723
H        0.50513400      -1.78374000       1.26372300      -1.17325308      -1.45978507      -0.27808231
H        0.31138100      -2.13678500      -0.57826400      -0.67952616      -0.24341458       0.27112079
F        1.27091500      -0.54779600       0.15885500       0.91986673       0.39969807      -0.99636888
F       -1.42442900       2.03901100      -0.44875400      -0.03967521      -0.24663617       0.07447869
6
Properties=species:S:1:pos:R:3:forces:R:3 charge=-1.0 dipole_moment="1.2481993913035132 -0.22426371430532419 -2.6049795960882" energy=-12.897389170325587 pbc="F F F"
C        0.63115900      -0.60785200      -3.27786900      -1.40328559      -0.37032836      -3.22642104
H        0.32370200      -1.10356400      -2.42318600      -0.43903595      -0.89543868       1.63149518
H        0.80137800      -1.27697300      -4.12726900      -0.86435507      -0.44342380       0.47075771
H       -0.14788500       0.08362800      -3.63100800       0.64051995       0.23658470       0.50937414
Br       2.34181800       0.04553600      -3.15577600       2.07192929       1.48700431       0.64578969
I       -1.63637300       0.08208000       2.64718600      -0.00458479      -0.01358880      -0.03159835
6
Properties=species:S:1:pos:R:3:forces:R:3 charge=-1.0 dipole_moment="-0.8030227127901551 -0.5516391956206446 1.5210717366396" energy=-12.471216600584388 pbc="F F F"
C       -0.19233100      -1.56191400       0.71788800      -0.29261727      -0.81240593      -1.65993466
H       -0.54756300      -2.37816900       1.30122100       0.25556099      -1.18565660      -0.04577541
H        0.82848100      -1.70781100       0.25045000      -0.96207139       1.17652147       1.33164745
H       -0.88430900      -1.40108600      -0.10518600       0.40908928      -0.46575897      -0.29400721
I       -1.02042300      -0.09553200       1.95688400       0.54714314       1.28559693       0.76715553
I        1.05358100       0.37588200      -2.06544700       0.04285824       0.00221681      -0.09914740
6
Properties=species:S:1:pos:R:3:forces:R:3 charge=-1.0 dipole_moment="-0.567624580797357 -0.4458159245837192 -0.20009195768118904" energy=-14.791953355968614 pbc="F F F"
C       -2.19467500      -1.79672000      -1.19863300       4.94305367       1.31805505      -2.91942255
H       -1.15533000      -1.36004700      -1.77724500      -2.31964328      -1.48488264       2.69555710
H       -2.03320400      -2.46873200      -0.34894800      -0.03628855      -0.50419594      -0.89724102
H       -2.61811400      -0.92631300      -0.84110600      -1.36098631       1.73663325       0.68113567
F       -2.85132900      -2.24046500      -2.33184700      -1.15877931      -1.02063084       0.45700745
I        0.84220100       0.67357700       0.58765500      -0.06770384      -0.04494597      -0.01703047
6
Properties=species:S:1:pos:R:3:forces:R:3 charge=-1.0 dipole_moment="-2.936605428758769 -0.18781028380121287 -1.0448974446630437" energy=-12.427777823623714 pbc="F F F"
C       -0.12884300      -1.06354500       0.44614500       2.40326430      -3.35963761       4.41797369
H        0.98289500      -1.52583000       0.08356500      -3.39521911       1.55507787       0.82096513
H       -1.02888800      -1.81417100       0.50419200       2.36728171       0.84194019       0.01404697
H        0.08364600      -0.64668600       1.59748600      -0.37887985      -1.32999371      -3.23930535
Br      -0.85208100       0.30540800      -0.48623800      -0.74239889       2.45141952      -1.94951444
F        3.39535800      -0.03570200       1.35069300      -0.25447238      -0.15866896      -0.06437889
6
Properties=species:S:1:pos:R:3:forces:R:3 charge=-1.0 dipole_moment="0.5200859460863544 -2.7630353036938287 0.5392474528808711" energy=-13.101462231228686 pbc="F F F"
C       -0.16933100      -1.54512000       0.96932300      -0.52322827      -2.31558093       3.25005616
H       -0.42009700      -0.53355500       0.91359600       0.47805245       1.87699955      -1.46885129
H        0.10915500      -1.58075000       2.17990100       0.02456072      -0.71348529      -3.43554481
H       -1.14065800      -2.07622900       0.85617700       0.92571085       0.10079548       0.08275970
Cl       0.98008100      -2.33333500      -0.25895400      -0.89304241       1.16145892       1.50108470
Cl      -0.83492900       3.12517300      -0.31549300      -0.01146352      -0.11079193       0.06993761
6
Properties=species:S:1:pos:R:3:forces:R:3 charge=-1.0 dipole_moment="2.6233907295981367 3.6708652672766267 -2.215664980630803" energy=-12.516406561755714 pbc="F F F"
C       -0.11944800       0.92186100      -1.13889000      -0.81875706      -0.24538148       1.86988068
H       -0.78137900       1.46867800      -0.52424300      -0.54549249      -0.15021774       2.21022534
H       -0.00979300      -0.10539400      -0.85494300      -0.89147250      -0.44158546      -0.50725915
H       -0.67653800       1.25841200      -1.94033400       0.23624737      -0.34412110      -3.29851426
Br       1.54127600       1.63824300      -0.78147400       2.01182667       1.15720837      -0.25048100
Cl      -3.04472100      -3.85243400       2.20614400       0.00902149       0.02397091      -0.02343972
6
Properties=species:S:1:pos:R:3:forces:R:3 charge=-1.0 dipole_moment="-0.37681650809830003 -0.13897781081038157 -3.5470695506373215" energy=-13.468859117720443 pbc="F F F"
C       -0.56074800      -0.49634000      -3.12044500       0.09705555       1.56977841      -0.58028311
H       -0.57890800      -1.56759600      -2.96907600      -0.23879585       0.01893412      -0.09014751
H        0.09633500      -0.20353700      -3.98283200      -0.68015608      -0.46909472       0.84867031
H       -1.54500900       0.00208200      -3.22631500       0.45468266      -0.98233220      -0.36703837
Cl       0.06129700       0.29210400      -1.64941100       0.36821234      -0.13636618       0.18545060
Cl       0.25588300      -0.01286300       3.34946300      -0.00067209      -0.00001491       0.00456319
6
Properties=species:S:1:pos:R:3:forces:R:3 charge=-1.0 dipole_moment="4.297943966035252 0.44167458373384666 -0.9844617029761792" energy=-11.688410618201447 pbc="F F F"
C       -0.60914500       1.10931200      -1.01742200       1.34296801       0.88226949       2.32893884
H       -0.69956800       2.00374700      -0.29622800       0.36712219      -1.40429706      -2.01863546
H       -1.47833400       0.75539000      -1.47438600      -1.85968985      -1.23404014       0.74597838
H        0.12299200       0.89810300      -1.73566000       0.84297789       2.28162951      -1.76686017
I        0.91493600      -0.16047400       0.04536100      -0.78592253      -0.59328724       0.80219453
F       -4.75353700      -0.20088700       0.80074400       0.09220234       0.06813013      -0.09152819
6
Properties=species:S:1:pos:R:3:forces:R:3 charge=-1.0 dipole_moment="0.08959128928009 -0.8514688864172747 1.3589905779932119" energy=-14.381749267001062 pbc="F F F"
C        0.15567500      -2.78695800       4.20305200       3.49782105      -1.06384544      -0.68067596
H        0.18534300      -2.25293800       5.19889600       1.50758805      -0.19409002      -1.31498361
H        0.11817300      -2.12033700       3.29539800       0.35114998      -0.46954158       1.10092126
H        0.88237800      -3.79389300       3.97121300      -0.58139075       3.63274587       0.94409373
F       -0.96112400      -3.43901000       4.32732800      -4.78361955      -1.89560714      -0.07219607
I        0.12321100       1.05358500      -1.44584500       0.00660671      -0.01083874       0.02298052
6
Properties=species:S:1:pos:R:3:forces:R:3 charge=-1.0 dipole_moment="-1.4612064479857234 2.8441158358964205 1.0474745376784897" energy=-13.93053575381551 pbc="F F F"
C       -1.16907600       2.75894300       1.11103800      -1.02667962      -1.05193711      -1.48458542
H       -0.60904800       3.94367200       1.22180300      -1.89534746      -4.16870933      -0.55717198
H       -0.67154600       1.83938200       0.47049400      -0.44585606       3.12979331       1.55871187
H       -1.50868700       2.24353100       2.05473400       0.97583040       1.28182872      -0.54197573
F       -2.51821500       2.81794500       0.41749100       2.39755285       0.77592300       1.00612828
Cl       1.90986300      -2.93775000      -0.83356900      -0.00607706       0.03207554       0.01816330
6
Properties=species:S:1:pos:R:3:forces:R:3 charge=-1.0 dipole_moment="0.21759184803453527 -0.5806592738479657 1.337387976726364" energy=-13.229277230137676 pbc="F F F"
C        0.71747400      -1.46112100       3.31767500       1.04118579       1.08325315      -1.22013869
H        0.11375100      -2.22870400       3.77793400       0.49875754       0.16145912       0.98487657
H        1.26525000      -0.63579100       3.88521500      -1.45329355      -1.32742312      -0.12677134
H        1.54633000      -1.92946200       2.73885700      -0.91691768       0.18579564       0.06701478
Cl      -0.49093000      -0.70958500       2.17361500       0.81555810      -0.16886493       0.48458099
I        0.02105000       0.48346500      -1.26904800       0.01384951       0.06691245      -0.19063446
6
Properties=species:S:1:pos:R:3:forces:R:3 charge=-1.0 dipole_moment="-1.5705080008276848 0.58620081759699 3.8585321440537768" energy=-12.074799105436021 pbc="F F F"
C        1.06227600      -0.29255600       0.34547000      -0.12783063      -4.42169922       4.38056311
H        1.74440100      -0.40072200       1.26394500      -0.80403698       0.93876074      -1.37033638
H        1.65123400      -0.15387800      -0.51849400      -0.41626575       1.47806356      -1.51126935
H        0.72258000      -1.38136200       0.35106100       0.62164548       1.30723122      -0.78887005
I       -0.82847500       0.32923400       1.29147300       0.71437387       0.68254978      -0.87465542
Cl       1.96572300      -0.80929900      -4.21278900       0.01206516       0.01515768       0.16429505
6
Properties=species:S:1:pos:R:3:forces:R:3 charge=-1.0 dipole_moment="-3.5954363476828566 -0.23737302134262223 0.873914996157761" energy=-12.864192707723696 pbc="F F F"
C       -3.49025200      -0.71155200      -0.22782800       0.73818897       2.99585426      -1.20928298
H       -2.63602500      -0.57193100      -0.93114400      -1.43862180      -0.77107595      -0.08658705
H       -4.39116000      -0.11528700      -0.48651600       0.97956210       0.08124481       0.04084506
H       -3.87582600      -1.66128400      -0.08688500       0.16215229      -2.11023154       0.61860901
Br      -2.59040700       0.10071800       1.28599300      -0.43572283      -0.19053213       0.65133813
Br       3.50025100       0.08836300      -1.20395000      -0.00597576      -0.00569551      -0.01557574
6
Properties=species:S:1:pos:R:3:forces:R:3 charge=-1.0 dipole_moment="2.750585880638104 -1.0085625498540989 3.171398711199892" energy=-11.805074229670472 pbc="F F F"
C        1.46484200       0.39043800       2.44816600      -6.59017910       0.15213733       1.30379983
H        0.56618200       1.19487900       2.91373800       3.23242353      -2.02560675      -1.74267688
H        2.44499300       0.60558700       2.60214200       2.79306568       1.48687473      -0.64655228
H        1.32111400      -0.45929400       3.09715600      -0.26740606      -0.41313774       0.15679051
I        0.65239100      -0.42415300       0.54306200       0.79764162       0.83328945       0.89879963
Cl      -2.80577000       1.10566600      -3.06378400       0.03413345      -0.03399719       0.02949261
6
Properties=species:S:1:pos:R:3:forces:R:3 charge=-1.0 dipole_moment="0.7174447034749812 0.8786897621286788 2.8249728503042744" energy=-11.530206011665966 pbc="F F F"
C        1.55373200       0.23719000       3.84585500      -0.99218673       5.87590550      -3.42837143
H        2.05460400      -0.11512500       3.05143100       0.71914275      -2.56692274      -2.61863226
H        1.17279200      -0.05024000       4.67813600      -2.79891185      -3.37499276       4.52862369
H        2.09564000       1.06182800       4.11088600       2.07758315       1.91491098       1.02072340
Br       0.11013800       1.74953100       3.09637900       0.97621555      -1.83043070       0.50269390
I       -0.34906100      -1.19911700      -2.70356300       0.01796121      -0.01840190      -0.00512010
6
Properties=species:S:1:pos:R:3:forces:R:3 charge=-1.0 dipole_moment="-0.23428791820503506 2.558349558647735 1.7967365501158323" energy=-12.382089022894657 pbc="F F F"
C        0.47090100       0.98793600       1.55841100       1.81212033      -3.95830360       0.46486680
H        0.64161600      -0.13431700       1.89109300      -0.18443296       1.68703564      -1.74477285
H       -0.24160800       1.13931700       2.29642000      -1.47600667       1.56899422       1.06549711
H        1.52221800       1.39174600       1.89550300      -2.18339280       0.25534450      -2.00973739
Cl      -0.49430200       0.96281300      -0.09900900       2.02192031       0.43677441       2.16891028
F        0.40616600      -2.74357600      -1.52781400       0.00948583       0.00910788       0.05432690
6
Properties=species:S:1:pos:R:3:forces:R:3 charge=-1.0 dipole_moment="1.1727572422794792 -1.6380839306166872 -0.05215041410106654" energy=-14.441335060240188 pbc="F F F"
C        2.15270000      -3.35983700      -0.13028700      -2.93224207      -2.54502414       1.19160716
H        2.55282700      -2.55627000      -0.49243400       2.24881606       5.67775674      -1.06185026
H        2.83238000      -4.02069500      -0.66668800      -0.56817013      -1.56656196       0.92658708
H        2.03562200      -3.30599500       1.00630400       0.33693281      -0.70538838      -1.90537939
F        0.87502500      -3.32697000      -0.77152300       0.88945315      -0.87848894       0.83092353
Br      -0.80606400       1.71384900       0.22509300       0.02580462       0.01709064       0.01818696
6
Properties=species:S:1:pos:R:3:forces:R:3 charge=-1.0 dipole_moment="4.681994855779171 1.4232676170515595 0.47926786194951243" energy=-12.753578045019404 pbc="F F F"
C        0.83621900      -0.38915900      -1.27832300      -2.00198808      -2.90465414       0.58539704
H        1.18788700      -1.46397900      -1.30264100       0.33682894       1.48531972       0.14826216
H        1.14046000       0.15693900      -2.13028800       0.27084003       0.50029043      -0.69990576
H       -0.28488000      -0.58525600      -1.25869700       1.30457219       1.00398346       0.06502372
I        1.45159800       0.60785400       0.48571300       0.01814993      -0.09096769      -0.07499394
Cl      -4.94091100      -1.64641100      -0.78713000       0.07179240       0.00609146      -0.02314970
6
Properties=species:S:1:pos:R:3:forces:R:3 charge=-1.0 dipole_moment="0.43782534870420525 -1.9269829369519107 -0.3245179243782756" energy=-14.557308112429514 pbc="F F F"
C        0.52188000      -1.71266200      -0.33450100      -8.24583391       0.08715938      -7.98036594
H        1.03904700      -1.39990700       0.35940300       4.98122633       3.03497565       7.32537530
H       -0.48177800      -1.06882800      -0.52553200       2.44184113      -1.18523082       1.05184455
H        0.99698700      -1.64717600      -1.26486800       1.23470914       0.48825098      -1.28624382
F        0.16351500      -3.00243400      -0.23529200      -0.44724806      -2.29453902       0.92135232
Cl      -0.36218700       2.43610500       0.32680200       0.03441987      -0.13228841      -0.03197476
6
Properties=species:S:1:pos:R:3:forces:R:3 charge=-1.0 dipole_moment="0.3367789603470398 1.0490885281707094 0.9186939717156734" energy=-15.159480623882354 pbc="F F F"
C        0.17492600       1.01181100       1.05699000       0.69369191       2.22941760      -1.44401546
H       -0.66860500       1.74108100       1.11728900      -0.13437100      -1.43267741      -0.55807392
H        0.40937100       0.72134600       2.03923400      -0.63421509      -2.01759828       1.05163269
H        0.33186800       0.37622900       0.14331400      -1.34424380      -0.13589772       1.48979396
F        1.24703100       1.92267800       0.95003500       1.40878158       1.37050710      -0.51311561
Cl      -0.72620400      -1.54197800      -1.07012300       0.01035023      -0.01439407      -0.02607664
6
Properties=species:S:1:pos:R:3:forces:R:3 charge=-1.0 dipole_moment="-0.09752206813481029 1.4603862233093492 -0.5526144692197137" energy=-13.194057937159805 pbc="F F F"
C       -0.45654000       1.13000700      -1.19754600      -1.78553923      -0.50440934      -1.99231919
H       -1.55057100       1.10216600      -0.96961400       0.74181577       0.72109782      -0.68753618
H       -0.32103600       0.16846100      -1.74572500       0.58499543       0.72705044       0.58614009
H       -0.03931500       2.02274300      -1.69822300      -1.09299455      -0.62077491      -0.59955816
Cl       0.30540500       1.20019000       0.28626800       1.72008409       0.41442072       2.83004020
Cl      -0.03186600      -1.79274300       0.39601600      -0.16789048      -0.73667973      -0.13582316
6
Properties=species:S:1:pos:R:3:forces:R:3 charge=-1.0 dipole_moment="0.05892917416838935 1.6983254642672747 -1.7437129936173354" energy=-12.89784565213681 pbc="F F F"
C        0.38708300       2.07123800      -2.84365200      -1.17574345      -4.52114795      -4.08917276
H       -0.02505600       1.09938300      -2.48473100       0.91692128      -0.06887883      -1.33268052
H        1.40165400       2.02223300      -2.71443000       2.54539746       0.32238088       0.63811649
H        0.22010200       2.17494600      -3.99730100      -0.15010770       0.13641349       2.21824410
Cl      -0.44272700       3.01661700      -1.82247600      -2.14497794       4.12404567       2.60335939
Br       0.10306200      -1.97161300       1.63544200       0.00799613       0.00766754      -0.03714833
6
Properties=species:S:1:pos:R:3:forces:R:3 charge=-1.0 dipole_moment="-0.7812063239302396 0.14807860047765853 -0.28168102918313265" energy=-12.419518107197653 pbc="F F F"
C       -2.28938800       0.37982500      -0.71651400      -1.63309903      -4.33543150      -2.81839156
H       -2.17781900       1.24301500      -1.26695000       0.31713634       2.60232786       0.48043123
H       -1.63339200      -0.08005500       0.00925100      -0.27056132       1.10964758       0.99017458
H       -3.40276500      -0.02173900      -0.86323300       2.59680616       0.58505405       0.50383650
Cl      -1.12549200      -0.46781200      -2.15557100      -1.47798796       0.00613568       0.32926732
I        0.75629600       0.08552100       0.81254200       0.46807605       0.03183900       0.51418365
6
Properties=species:S:1:pos:R:3:forces:R:3 charge=-1.0 dipole_moment="-3.729625104737636 1.211043213463773 -3.7939571782258814" energy=-11.697754464711087 pbc="F F F"
C        0.76355100      -0.17821100      -0.46203900      -2.15535131       3.12403404       5.06606400
H        0.95445000      -0.93709800      -1.05022400       0.29134355      -4.07169903      -2.60421300
H        0.87535300      -0.27372300       0.66164500      -1.67826560      -1.34085405      -1.07263244
H        1.62260800       0.42217100      -0.38118000       0.52990697       2.59819199      -1.87350645
Br      -1.33660600       0.40431000      -0.93080800       3.05509402      -0.33304376       0.55453917
F        4.30527700      -1.36588200       4.01336400      -0.04306855       0.02345823      -0.07007902
6
Properties=species:S:1:pos:R:3:forces:R:3 charge=-1.0 dipole_moment="-1.177301286986591 -0.488808397878768 -1.2732464070339204" energy=-13.628985401114667 pbc="F F F"
C       -3.79630200      -1.00001300      -4.05751300       3.03179674      -2.49319070       5.55971430
H       -4.37924900      -1.82314600      -3.68456000      -2.10499780      -0.01826923      -1.53360453
H       -3.26102800      -1.20657600      -2.96426800      -0.69580844       2.03384508      -1.58418585
H       -2.87611700      -1.46091000      -4.48846400      -1.01951447       1.74771213      -1.73496563
F       -4.35201400       0.25273500      -4.14980000       0.79242125      -1.25580298      -0.69947124
I        1.36721400       0.15502100       1.37416200      -0.00382940      -0.01376157      -0.00745569
6
Properties=species:S:1:pos:R:3:forces:R:3 charge=-1.0 dipole_moment="-1.8416001940274347 -0.2247786037312028 -0.34625123241613254" energy=-12.812083163772906 pbc="F F F"
C       -2.66264700      -0.15653600      -0.01792900       3.26557277      -0.70439953       0.14583607
H       -1.61666600      -0.70054700       0.27854700      -2.67946302       0.82725816      -1.04330592
H       -3.41585100      -0.46016500       0.84488600       1.22311140       1.31485968      -2.42592035
H       -2.20269600       0.90771200      -0.23786900      -1.98882763      -1.89057189       0.97439264
Cl      -3.16708800      -0.74928800      -1.80382900       0.31460535       0.46522058       2.34423125
Br       2.20147400       0.39800300       0.85391700      -0.13538865      -0.01288328       0.00353424
6
Properties=species:S:1:pos:R:3:forces:R:3 charge=-1.0 dipole_moment="-1.2399415809326644 0.3359693192148771 0.09776019787956401" energy=-14.322541883086956 pbc="F F F"
C       -2.86995700       0.60051900       0.31674300      -2.08871911      -0.20914332       0.77800662
H       -2.88718900       1.57493600       1.07660200      -0.11186099      -2.71245645      -2.10426915
H       -3.94218500       0.38462600      -0.24034900       3.17803750       2.02809353       0.28800934
H       -1.83956500       0.57474700      -0.24728400      -2.24643214      -0.28664769       0.99186997
F       -3.10361400      -0.60924400       1.10186100       1.41897137       1.10623882       0.07159649
Br       1.53774900      -0.01869200      -0.35446200      -0.14976060       0.07283267      -0.02422956
6
Properties=species:S:1:pos:R:3:forces:R:3 charge=-1.0 dipole_moment="-0.39097729025298844 -1.7593290131010746 -0.4790376698629172" energy=-14.278207810638452 pbc="F F F"
C       -0.75706300      -3.51924000      -0.94910400       1.04200545      -2.61592746       4.16726643
H       -1.68023400      -2.94106100      -0.83790700       0.27558217      -0.40585998       0.33885548
H       -0.31307100      -4.11897700       0.02896400      -2.18834577       1.61970255      -1.51375253
H       -0.94786300      -4.47405000      -1.52309500       0.92214884       1.73960853      -1.14393428
F        0.27863100      -2.63030100      -1.08779800      -0.01843841      -0.35824057      -1.86436772
Br       0.14216700       1.60920700       0.50905300      -0.03209508       0.02065007       0.01589302
6
Properties=species:S:1:pos:R:3:forces:R:3 charge=-1.0 dipole_moment="0.020013482103524473 1.6103232941505081 0.499733790568069" energy=-13.090946525492054 pbc="F F F"
C       -1.15040700       1.11208900       0.48173700       0.76953072       0.91733317      -0.35666809
H       -0.97617500       0.11063700       0.80982300       0.09199819      -0.50510354       0.47466373
H       -1.26221900       1.03634200      -0.59729800      -0.27785040       0.31052758       0.22679908
H       -1.96242400       1.68440700       1.03036000       1.59591213      -0.36752688      -0.66589109
Br       0.84465200       1.92607200       0.53610700      -2.09351474      -0.38510037       0.28593086
Br      -0.52741600      -2.19761300      -0.65420200      -0.08692026       0.02987005       0.03515572
6
Properties=species:S:1:pos:R:3:forces:R:3 charge=-1.0 dipole_moment="0.3529590827372398 1.1621149593978297 0.5348669239318236" energy=-15.242253001554655 pbc="F F F"
C        1.22190600       3.85619900       1.98358600      -2.14357720      -0.16454804      -2.30674354
H        2.01808900       3.26604100       1.58675400       0.75464969      -0.02439154      -0.53058883
H        0.82203100       4.63016000       1.25643600       0.61740779      -1.17868942       0.49542333
H        0.40696200       3.10508900       2.14864400       0.47935600       0.92144436       0.58876159
F        1.64392600       4.54040700       3.05537300       0.28224030       0.41134723       1.73762210
I       -0.47875200      -1.41513500      -0.83757900       0.01006741       0.03626284       0.01643038
6
Properties=species:S:1:pos:R:3:forces:R:3 charge=-1.0 dipole_moment="-0.932849462098256 1.7028658047339127 0.7900086576507585" energy=-15.322145765914417 pbc="F F F"
C       -1.04150900       1.64195500       0.58524200       1.80031794       0.70930622      -3.05439108
H       -0.36910700       0.82241000       0.29267500      -0.23027933       0.37522477      -0.27748479
H       -1.16839400       2.43924600      -0.19683900       0.75835979      -0.74646381       0.32826768
H       -2.00227700       1.28638300       0.64522600      -2.36982607      -1.11223000       1.19331026
F       -0.55213200       2.23003400       1.68829100       0.11363557       0.65562159       1.76355219
Cl       0.86811900      -2.02765200      -1.14394900      -0.07108535       0.11861580       0.04789863
6
Properties=species:S:1:pos:R:3:forces:R:3 charge=-1.0 dipole_moment="-0.12361579638771329 2.6256344409709276 -2.067987496478752" energy=-12.688747257304763 pbc="F F F"
C        0.50957500       1.03309000       0.15442700      -0.94202604      -5.71052751       0.20655216
H        0.68792300      -0.18203000       0.39275100      -0.33436788       3.28839542      -0.93451739
H       -0.20181700       1.23292700       0.90827100      -1.32800162       0.58459383       0.22264418
H        1.40270900       1.52863600       0.48430100       0.64930593       0.89017512      -1.67076415
Cl      -0.47650900       0.97154900      -1.56999000       1.91241290       0.76239128       2.29332083
F        0.35048900      -2.81049000       2.66421600       0.04186065       0.18456254      -0.11842708
6
Properties=species:S:1:pos:R:3:forces:R:3 charge=-1.0 dipole_moment="-0.7018096336116619 -5.093560314586356 -0.24134608383953554" energy=-12.436029053282631 pbc="F F F"
C        1.50272500      -0.42055800       0.52552800       1.79449284      -2.69318294      -3.44886673
H        2.17459600      -0.18779500      -0.39191800      -1.42387138       0.24940114       1.72717827
H        1.71379900      -1.49404100       0.67415500       0.57955601       0.77208280       0.70427303
H        1.68418300       0.16929800       1.36685400      -0.28761802       1.07481222       1.06357341
I       -0.45648100      -0.81466700      -0.15069900      -0.69168954       0.62638146      -0.05968508
F        1.06717200       5.24591800       0.35386800       0.02878864      -0.02965356       0.01317896
6
Properties=species:S:1:pos:R:3:forces:R:3 charge=-1.0 dipole_moment="-1.2378777898114652 0.7117274728920494 -0.9857618913825346" energy=-11.80328616342518 pbc="F F F"
C       -1.74647200       0.75785800      -0.37882500       2.97771307      -4.96409815       4.47585025
H       -2.27184900      -0.22754500       0.16268100       1.93123132       2.87828747      -1.15440741
H       -2.47360100       1.26263700      -0.75273900      -4.73381882       1.99996977      -5.44952864
H       -1.65142200       1.62776200       0.25784800       1.70892190      -0.65412623       1.83205255
Cl      -0.16644300       0.28084800      -1.14172000      -2.26141190       1.05701658      -0.49859916
Cl       1.15913100      -0.70496600       1.29496400       0.37901869      -0.31807531       0.79588761
6
Properties=species:S:1:pos:R:3:forces:R:3 charge=-1.0 dipole_moment="0.9088126456628147 0.920581017648544 2.4975767310777415" energy=-11.983050543121816 pbc="F F F"
C       -1.02724100       1.52970900       0.67394400       2.13153416      -0.00184040      -2.42627516
H       -0.60906900       2.07153600      -0.26327600      -0.55054316      -0.07488904       2.10952602
H       -1.16724400       2.18875500       1.63605400      -0.26022806      -1.97345912      -2.20312447
H       -1.56639400       0.75010100       0.06274800      -1.28969732       1.22546808       1.70663259
I        0.59512200      -0.01308300       0.83864000       0.01043045       0.66299191       0.61033828
Cl      -1.29619500      -0.79383700      -2.93688700      -0.04164570       0.16166069       0.20284000
6
Properties=species:S:1:pos:R:3:forces:R:3 charge=-1.0 dipole_moment="-1.2711894952164593 1.61079426186791 2.2626241662962383" energy=-13.020714816147434 pbc="F F F"
C       -0.35538200       0.81653000       1.55419700       0.48505356      -7.35537442      -2.67813479
H       -0.31287800      -0.30992300       0.88784800       0.39740722       1.60276515       2.96628914
H       -0.83650300       0.49598000       2.61174700       1.64267485       1.55020563      -2.55196663
H        0.76167800       0.85073400       1.18799700      -2.14520883       1.64737225       1.49772015
F       -1.31014600       1.19915600       0.61302600      -0.35452636       2.49837713       0.63153909
F        1.59014500      -1.85870800      -2.17000100      -0.02560665       0.05544224       0.13484049
6
Properties=species:S:1:pos:R:3:forces:R:3 charge=-1.0 dipole_moment="0.1889130891080279 -0.713903449581888 0.6054787433778309" energy=-14.827343691473917 pbc="F F F"
C        0.44874000      -2.63022000       1.61118000       1.88488615       0.55574605      -2.14884179
H        1.57119900      -2.76356600       1.36409500      -1.84272829       1.44455694       0.27187053
H        0.31006000      -3.09574400       2.48046500      -0.29691719      -2.28615723       3.87846570
H       -0.10673800      -1.72223000       1.74785700       1.04653574       1.31693919      -0.65366652
F       -0.23677100      -3.34847500       0.69156200      -0.79521450      -1.04477248      -1.40313955
I       -0.04407600       1.00941800      -0.40535000       0.00314343       0.01376106       0.05415361
6
Properties=species:S:1:pos:R:3:forces:R:3 charge=-1.0 dipole_moment="0.8676685883642655 -1.8552799540977207 0.6774516066094083" energy=-12.137124675213315 pbc="F F F"
C        2.32038100      -1.18899800       0.60901300       0.74234696       0.82069928      -1.87711474
H        2.71632000      -0.12900700       0.27624300      -1.27333637      -2.12826628       0.95911205
H        3.01163600      -1.97711000       0.08891300      -1.97196737       1.16714363       0.91808856
H        2.18328900      -1.34886100       1.65616400       1.07790114       0.17216982       0.57088985
I        0.05888500      -1.27051800       0.37815600       1.42394800      -0.15032779      -0.54493301
Br      -0.71298500       2.22646900      -0.73479100       0.00000103       0.11963447      -0.02599643
6
Properties=species:S:1:pos:R:3:forces:R:3 charge=-1.0 dipole_moment="2.0262936240584266 -0.7404829625140886 -0.7700057590914453" energy=-13.346552736902973 pbc="F F F"
C        2.55000400      -0.93071700      -1.52964700      -1.28390051      -1.68148771      -1.78070453
H        3.10723400      -0.25981500      -2.11200500       1.03553296       0.44552953      -1.12487469
H        1.54696300      -0.50810800      -1.59278300      -0.11508721       0.09444640       1.77753539
H        2.41509300      -1.93392400      -1.98728600       0.37346973       0.88334472      -0.26223506
Cl       3.49275200      -1.26330800      -0.11883600      -0.04875172       0.27152805       1.44379846
Br      -2.33560300       0.85035400       0.48257600       0.03942324      -0.01381660      -0.05261660
6
Properties=species:S:1:pos:R:3:forces:R:3 charge=-1.0 dipole_moment="0.268695020435896 5.416335129233034 0.8197431251123407" energy=-12.33264551582804 pbc="F F F"
C       -1.35839200       0.46403900       0.21617900      -0.35935077       3.23896288      -0.87967062
H       -1.22609100      -0.43913400      -0.40047200      -0.49994539       0.28899047       1.17847654
H       -2.19114000       1.20723700      -0.11293100       1.95483713      -1.06151344      -1.14960407
H       -1.67902200       0.65434500       1.22892100       0.90519550      -1.94117686       0.89675663
Br       0.56904800       1.34310900       0.15049800      -1.97790045      -0.56515011      -0.04745537
F       -0.74111700      -5.69061100      -0.80889200      -0.02305714       0.03971121       0.00132926
6
Properties=species:S:1:pos:R:3:forces:R:3 charge=-1.0 dipole_moment="-0.9001780611180445 3.699678966391828 -3.106772944359783" energy=-12.922982306768924 pbc="F F F"
C       -0.79417100       0.07865200      -1.88196100       1.92546691       1.32858012       0.08617104
H        0.05237900      -0.33655100      -2.42730700       0.09178685       0.02794995       0.36894870
H       -1.19848200       0.86591200      -2.50943800      -0.34151246       0.00872170       0.36763127
H       -1.45929800      -0.70825700      -1.64434400      -0.73671881      -0.36359772       0.74104238
Br       0.01422300       1.01237000      -0.21248400      -0.93100732      -0.97728616      -1.55212316
F        0.76362400      -3.96955200       2.81220100      -0.00746700      -0.02530017      -0.01111745
6
Properties=species:S:1:pos:R:3:forces:R:3 charge=-1.0 dipole_moment="-3.7235078161835173 2.6772027601403736 1.9155262503432033" energy=-13.422613062677854 pbc="F F F"
C       -1.73174000       0.85236500      -0.16976200      -0.57537076       3.90861754      -0.24954975
H       -2.78336400       0.83690200      -0.05443600      -1.04021957       0.01768199       0.23050764
H       -1.44979900       0.06928900      -0.73283900       1.34357737      -2.90027400      -1.55638708
H       -1.44504000       1.78493600      -0.69824600      -0.42791644      -0.69018030      -0.00185428
Cl      -0.96050100       0.98861800       1.35213800       0.71691309      -0.33867808       1.59132889
F        3.59968500      -2.73464700      -2.27580600      -0.01619898       0.00324216      -0.01312034
6
Properties=species:S:1:pos:R:3:forces:R:3 charge=-1.0 dipole_moment="2.1024723877595655 -1.181379126571196 3.037151744651952" energy=-11.396391382436134 pbc="F F F"
C       -0.46032600       0.86111000       1.76548800       5.44379096       2.55600532      -5.32721354
H       -1.43390300       0.52895000       1.95581800      -0.75289414      -0.69601465       1.51681625
H       -0.51828400       1.49711200       0.74273600      -0.38475893      -1.10574619       2.57752494
H        0.59732400       1.22154200       2.17002800      -3.63303332      -0.37267680       0.88957811
I        0.86265000      -0.65634200       0.69342400      -0.69628461      -0.40397896       0.23623143
Cl      -2.44727300       1.55128600      -3.07135200       0.02324380       0.02257583       0.10689928
6
Properties=species:S:1:pos:R:3:forces:R:3 charge=-1.0 dipole_moment="-1.3489827785870285 -1.541510677220418 0.18164113588045958" energy=-12.90206252415997 pbc="F F F"
C       -2.15855900      -2.54478300      -0.66016500       2.26958646      -0.31242197       0.47335298
H       -1.54180600      -3.45193500      -0.85926200      -0.47862529       0.71265946       0.61277363
H       -2.12903500      -1.96993100      -1.57382600       0.00511238       0.70821350       0.29470861
H       -3.12098400      -2.77890000      -0.33594200      -1.50022595      -0.49900591       0.11276088
Br      -1.43616100      -1.57464600       0.97854700      -0.30609551      -0.62119554      -1.45842187
I        1.32092100       1.48268100      -0.51922900       0.01108043       0.01118121      -0.03529816
6
Properties=species:S:1:pos:R:3:forces:R:3 charge=-1.0 dipole_moment="2.0515300852302163 -0.7522301674113953 -1.843624826035052" energy=-12.855175724381795 pbc="F F F"
C        0.87807100       0.26021500       0.21864500      -0.23351892      -2.49306883       0.59036287
H       -0.04692300      -0.24727400       0.56833500       0.39985285       0.64910075      -0.58186589
H        0.78539800       1.33271600       0.31374800       0.34073907       0.01945502      -0.60387504
H        1.68989000      -0.24896000       0.74893800      -0.18439799       1.03416719       0.37823964
I        1.45450500      -0.71546300      -1.70151100      -0.48835331       0.83293824       0.31068082
Br      -2.42244400       1.01490700       2.49249100       0.16579811      -0.04251165      -0.09344675
6
Properties=species:S:1:pos:R:3:forces:R:3 charge=-1.0 dipole_moment="-1.3407180889124422 -1.409664587676805 0.8030528758911571" energy=-12.666172494074383 pbc="F F F"
C       -2.36095200      -1.75235900       0.40307400       0.39878276      -2.60561785       0.16603671
H       -3.26295000      -1.26246500       0.82522700       0.92557047       0.48991809      -1.06128564
H       -2.52216000      -2.82455900       0.74848000       0.79399631       1.16983146       0.26182831
H       -2.16956600      -1.96652500      -0.67287700      -1.06596145       1.20932001       0.57804883
Br      -0.60736700      -0.99236600       0.93892600      -1.13339738      -0.31234124       0.07345848
Br       1.23937900       1.46572800      -1.03376200       0.08070385       0.04951585      -0.01733181
6
Properties=species:S:1:pos:R:3:forces:R:3 charge=-1.0 dipole_moment="2.1111366062281274 -2.2417110829347555 0.7846269254193242" energy=-13.218122410694466 pbc="F F F"
C        1.53631600      -1.28738000       0.38255600      -0.89512552      -1.33503719       5.69087245
H        2.24820100      -0.56178000       1.00773200      -1.01269128      -0.29982510      -3.43911762
H        1.84219700      -2.11267400      -0.41872200      -0.45401057       2.37853800       1.98986122
H        1.39967700      -1.70055000       1.57739800       0.43764550      -0.95326896      -3.19240071
F        0.19445800      -0.85424000       0.26007500       1.93323781       0.16240786      -1.03834626
F       -1.82867700       2.19860500      -0.75582500      -0.00800744       0.04704605      -0.01065671
6
Properties=species:S:1:pos:R:3:forces:R:3 charge=-1.0 dipole_moment="4.447543950993282 -1.5971891157843137 0.2683880976537689" energy=-12.888864260304699 pbc="F F F"
C        0.67036700      -0.31779100       0.56400900       1.83883306       7.62591826      -4.02507310
H        0.25007900      -1.09830400       0.96015100      -2.22724656      -4.61551722       1.78787020
H       -0.02804500       0.27084600      -0.30045900       2.03495426      -2.09310490       2.51526207
H        0.86601900       0.47718200       1.37060800       0.10966784      -1.36799102      -1.37595321
Cl       2.31733900      -0.79883800      -0.28878000      -1.80771089       0.46785494       1.08718334
F       -4.94500100       1.75969700      -0.05612200       0.05233172      -0.01723668       0.01009981
6
Properties=species:S:1:pos:R:3:forces:R:3 charge=-1.0 dipole_moment="0.4177949329299427 0.9262410970927347 0.9642317873935342" energy=-12.705986740113197 pbc="F F F"
C        0.66141900       2.26694800       2.33282100      -2.03426212      -5.51026941       1.96946980
H        0.04138800       1.20987700       2.38344900       0.75970345       3.15905504      -0.13883341
H        0.20487400       2.98904800       1.76501900      -1.25354915       1.86997478      -0.59136766
H        1.09793000       2.38446800       3.28833400      -1.26479927       1.46817252       1.50885355
Cl       2.07809900       1.76276600       1.62293100       3.82598897      -1.02604147      -2.81460021
I       -0.76680000      -0.94626600      -0.92497300      -0.03217993       0.03922630       0.06640080
6
Properties=species:S:1:pos:R:3:forces:R:3 charge=-1.0 dipole_moment="-1.3056230563078484 -0.47017395158597286 -1.010897808884317" energy=-14.621176966624883 pbc="F F F"
C       -1.42107900      -0.63687400      -1.30042900      -0.07090692      -0.12097915      -0.39113270
H       -1.05392500      -1.67795600      -1.30138900      -0.10850365       0.41004213      -0.03052568
H       -1.05325100      -0.11318000      -2.20537500      -0.17788127      -0.30136057       0.42120792
H       -2.52540600      -0.63786000      -1.29848200       0.30387613      -0.05111456      -0.11484862
F       -0.96783800       0.00263300      -0.19211700      -1.30614879      -0.12344381      -0.46296264
Cl       1.28644700       0.36626700       0.84334600       1.35907958       0.18760827       0.57907418
6
Properties=species:S:1:pos:R:3:forces:R:3 charge=-1.0 dipole_moment="0.06107763364327854 0.5877677113174696 -1.2122126950991192" energy=-13.77205484559154 pbc="F F F"
C       -0.10198100       1.37021700      -2.78173300      -7.96218515       0.65079614       6.69522050
H        0.32773000       2.24629000      -2.41089400       0.55256713       1.21911128      -0.20735537
H        0.22778500       0.66480500      -3.26635900       5.43652297      -5.87436953      -6.00334481
H       -0.39597300       0.58460700      -1.89321200       0.71478216       2.73437305      -0.94276189
F       -1.41340200       1.46208100      -3.44681100       1.24739033       1.23294433       0.56500562
Br       0.37637000      -0.71073500       1.57949000       0.00928837       0.03685008      -0.10716102
6
Properties=species:S:1:pos:R:3:forces:R:3 charge=-1.0 dipole_moment="-4.299167952923287 1.3924467487766896 1.7030107992896073" energy=-12.608463184722595 pbc="F F F"
C        1.21881500       0.26545600       0.39714600      -1.55106644      -4.90272077       0.88233994
H        1.56212000       1.17298400       0.12984400       0.80497749       3.08860527      -0.84008488
H        1.34190300      -0.49674800      -0.41554800       0.65423010       0.84514944       1.09810847
H        1.60614800      -0.08975300       1.41988900      -1.04288991       0.54319495      -1.73844485
I       -1.06672900       0.20616000       0.23303500       1.27954661       0.36365943       0.51818428
F        4.96817500      -1.45618700      -1.76309900      -0.14473101       0.06174968       0.08020608
6
Properties=species:S:1:pos:R:3:forces:R:3 charge=-1.0 dipole_moment="-2.204520508576328 -0.3031920827925528 4.155681552278901" energy=-13.23713730224064 pbc="F F F"
C       -1.35243200      -0.75692400       0.58370800      -0.02532794       0.41505116      -1.26688701
H       -0.88787400      -1.71112700       0.53540500       0.24672719      -0.74516026       0.00706179
H       -1.08893700      -0.19930900      -0.31790900       0.01239066      -0.05689080       0.25996015
H       -2.42025100      -0.84195100       0.63931900      -0.38307126      -0.03997140       0.23630857
Br      -0.66554800       0.15173900       2.09316100       0.18518063       0.43899944       0.73545023
Cl       2.10622500       0.11665000      -4.56586400      -0.03598773      -0.01221223       0.02769130
6
Properties=species:S:1:pos:R:3:forces:R:3 charge=-1.0 dipole_moment="-0.7697729211187972 2.5115750558287866 5.346394306490022" energy=-12.05576908741442 pbc="F F F"
C        0.08945100      -1.16833900      -0.28629200      -3.58637242       3.00842644      -1.51362037
H       -0.81234600      -1.70424500      -0.05697100      -0.39145923      -0.13405784       0.57931792
H        0.81454200      -1.90452500      -0.48111800       1.98830570       0.13192640       0.41362728
H       -0.24258400      -0.52554600      -1.16764200       1.16831605      -1.53818212       0.68819232
I       -0.13461800       0.70067100       1.03638500       0.82972796      -1.47467690      -0.22376158
F        0.75982700      -2.88791300      -5.72276600      -0.00852835       0.00660414       0.05620792
6
Properties=species:S:1:pos:R:3:forces:R:3 charge=-1.0 dipole_moment="-2.686770813284579 3.39101995383694 0.173815134113431" energy=-12.219983513736938 pbc="F F F"
C        0.75437600       1.01935500       1.23363300       2.82046747      -3.63557871       0.71273659
H        1.19376800       0.20273300       1.99450700      -1.89012658       1.10071557      -1.77616448
H        0.53492600       1.84611200       1.86105200      -0.27502013       1.13813901      -0.39008729
H        1.59278500       0.97798000       0.51641400      -0.06157021       1.39356116       0.84494992
I       -0.66819800       0.41401900      -0.22654400      -0.58539344      -0.08137542       0.56797370
F        3.06297400      -3.45399800       0.02589900      -0.00769891       0.08291500       0.04062806
6
Properties=species:S:1:pos:R:3:forces:R:3 charge=-1.0 dipole_moment="-0.7881919922868927 1.576962375264932 0.1656494005772203" energy=-12.270931456172777 pbc="F F F"
C       -1.52646200       3.60205100       0.72753100       0.86411236       0.78913950       3.70196203
H       -0.74156300       2.67662900       0.76357800      -1.40932459       2.98411254       1.70139782
H       -2.50115500       3.54604500       1.32141800       2.05191326      -0.53451079       0.35872188
H       -1.23636800       4.78659400       0.92871300       0.10500335      -3.32948988      -0.97801995
Cl      -2.11296600       3.20450700      -0.76289300      -1.60351951       0.04121170      -4.80925602
I        0.93506200      -1.64336200       0.10547700      -0.00834632       0.04946237       0.02491451
6
Properties=species:S:1:pos:R:3:forces:R:3 charge=-1.0 dipole_moment="0.23897113651852503 0.48119142110991203 1.0941797182828543" energy=-11.8675908208285 pbc="F F F"
C       -0.09605700       1.08558700       2.17383500       0.39615201       5.45865400       3.04663355
H       -0.30245200       2.27857600       2.24044400      -0.25371854      -2.31687831      -2.22807652
H        0.26446300       1.27222000       3.18271700       0.22156946      -1.91211465       0.77196915
H       -0.86619600       0.43633900       2.03440200      -3.15998064      -0.80037728       0.51223629
Cl       1.00894100       0.41138900       1.15154000       3.72349605       0.13219174      -0.80151062
Br      -0.44775600      -0.49983600      -1.14505000      -0.92837554      -0.56028559      -1.30309997
6
Properties=species:S:1:pos:R:3:forces:R:3 charge=-1.0 dipole_moment="3.435268693829867 -1.3972754908230847 0.03944963187032379" energy=-12.446721097244126 pbc="F F F"
C        3.80865000      -0.77429000       0.16870100      -1.30543351      -3.82093315      -0.09698562
H        4.15991900       0.16811900      -0.11426600       0.29298905       1.36986021      -0.26801233
H        4.04054400      -1.58269700      -0.63060000      -0.01758943       1.54862594       1.63642398
H        4.10612700      -1.11120000       1.21552800      -0.54046958       0.58598839      -1.59642893
I        1.52311900      -0.84049300      -0.00918200       1.53265631       0.35034883       0.32874076
Br      -3.31096600       1.47764700      -0.02846400       0.03785847      -0.03404861      -0.00364994
6
Properties=species:S:1:pos:R:3:forces:R:3 charge=-1.0 dipole_moment="0.5439042123338329 0.36737598666184107 3.3594921048087567" energy=-13.476249076920944 pbc="F F F"
C       -0.23921000      -0.49245100       0.30885200       1.87787064      -0.55386143      -0.95021861
H        0.21308400      -1.51006400       0.30521000      -0.69611132       0.78272511       0.20367818
H        0.16199600       0.01919800      -0.58102000      -0.45709178      -0.12445169       0.44074162
H       -1.29902100      -0.47605500       0.32843000      -0.73205380      -0.12240766       0.01613367
Br       0.42354600       0.43753900       1.88441700      -0.02366906       0.00993423       0.10032908
Cl      -0.73323100      -0.61130800      -3.99178400       0.03081570       0.00745980       0.18870150
6
Properties=species:S:1:pos:R:3:forces:R:3 charge=-1.0 dipole_moment="1.5850233317134508 1.8172527505693925 2.0303894556681907" energy=-14.128313408904367 pbc="F F F"
C        0.94184300       1.36992300       1.03647600      -8.06188792      -0.43300157      -6.81097466
H        1.49068500       1.66623000       1.75392600       3.71436709       2.02543038       5.54316411
H       -0.18717100       2.01672500       0.89429600       3.62257150      -1.50218565       0.79251484
H        1.41171600       1.46098400       0.07490000       0.44150113       0.40433171      -0.33751131
F        0.55428600       0.06584100       1.11253100       0.28377319      -0.53114367       0.85005716
F       -1.48387400      -1.55067200      -2.10608400      -0.00072968       0.03607567      -0.03689019
6
Properties=species:S:1:pos:R:3:forces:R:3 charge=-1.0 dipole_moment="-0.21239585700400893 -1.6636061474821813 0.6106122914975107" energy=-12.696650265877697 pbc="F F F"
C       -0.60132900      -1.48593900      -0.87459400      -2.64944282       2.24513990       1.29823390
H        0.06382100      -2.26933400      -0.99719800       0.86499887      -1.67864047      -0.21521112
H       -0.72445300      -0.87446000      -1.79327500       0.67248185       0.23613270       1.10425341
H       -1.65028500      -1.73328400      -0.51460800       1.56074561      -0.27580534      -0.59631394
Br       0.11159900      -0.51249300       0.76865400      -0.39105711      -1.27278101      -0.83571503
Cl       0.11840700       1.86646800      -1.07942700      -0.05771201       0.74625298      -0.75606174
6
Properties=species:S:1:pos:R:3:forces:R:3 charge=-1.0 dipole_moment="-1.3696746658744956 -1.2910283488404977 0.36670922337653067" energy=-13.63912955602234 pbc="F F F"
C       -1.13507800      -1.38630100       0.52416000      10.49389458       0.80231383      -4.85084054
H       -0.53483900      -0.56227700      -0.36460700      -0.96010450      -2.28299065       3.09767766
H       -0.29634000      -2.35869700       0.48751900      -3.08800620       2.11691075       0.03450781
H       -0.96103800      -0.91449900       1.41471800      -0.66266898       1.11540017       2.57444065
F       -2.27535600      -1.49124900       0.00982600      -5.70870871      -1.67318253      -0.87068821
Cl       1.71064100       1.50438400      -0.28064800      -0.07408172      -0.07847316       0.01500599
6
Properties=species:S:1:pos:R:3:forces:R:3 charge=-1.0 dipole_moment="0.9335913685474667 0.1855718642005278 -0.5232879973874762" energy=-13.388048070417092 pbc="F F F"
C        2.50876800       0.13592300      -1.28101800      -1.06813301      -2.52636718      -1.59587562
H        2.15511000      -0.61288000      -0.51760000      -0.05990002       0.60575761      -1.18001971
H        3.41646600       0.49057900      -0.93429100       1.85101444       0.95338158       0.54476024
H        2.67841500      -0.30381100      -2.35589800      -0.47565206       0.55806672       2.26585477
Cl       1.35848700       1.44045500      -1.38905200      -0.14111912       0.64192377      -0.22414211
I       -0.87541300      -0.46938000       0.66241100      -0.10709777      -0.23212281       0.18909900
6
Properties=species:S:1:pos:R:3:forces:R:3 charge=-1.0 dipole_moment="-4.05558768290075 1.991531973096488 -0.02554338395391661" energy=-12.64702325952755 pbc="F F F"
C       -0.05407000      -0.72779900       0.58120100      -1.61673601       1.76226149       2.24490490
H        0.47149600      -1.23537100      -0.20876100      -0.59170807      -0.91102265      -0.00028848
H       -0.65294800      -1.16469300       1.53926200       1.51179592       0.54659755      -3.11800429
H        0.62608400       0.00998600       0.94155400       0.95779462      -0.31031726       0.83087725
Br      -1.16139600       0.81053600      -0.22824100      -0.11544923      -1.12737946       0.03900518
F        4.50318200      -2.40132100       0.24768600      -0.14583144       0.03996420       0.00303956
6
Properties=species:S:1:pos:R:3:forces:R:3 charge=-1.0 dipole_moment="0.3953430022401401 2.752695180999411 2.030124867062909" energy=-13.186410756476127 pbc="F F F"
C        0.63292200       2.69642600       1.88228900      -1.85642353       4.06838694       6.63893956
H        1.43906600       2.46835700       1.19176900      -1.54581007      -0.37356538      -1.64016237
H        1.05443200       2.18811200       2.87993600      -1.01585476       1.38835467      -2.01909415
H        0.40895000       4.01351100       2.14480700       1.94419637      -4.06876592      -1.10808847
F       -0.82847600       2.44495000       2.02161300       2.44803081      -1.02005595      -1.87152207
Cl       0.04448900      -2.75606400      -2.10028000       0.02397708       0.00554690       0.00017741
6
Properties=species:S:1:pos:R:3:forces:R:3 charge=-1.0 dipole_moment="-1.579080671638819 -0.6550631771848733 0.608484999111044" energy=-11.868633430457114 pbc="F F F"
C       -1.78527900      -0.11738300       1.00796200      -3.80542066      -2.21254654      -1.53422314
H       -2.02715400       0.92607700       1.17282000      -0.41115799       1.22304815      -3.17226846
H       -1.57029900       0.02823500       1.99470900       2.02279037      -2.38743556       3.39624498
H       -2.74367900      -0.82580800       0.87203900       1.79850634       2.29367770       0.86826417
Cl      -0.66729800      -0.86583800      -0.12057200      -0.33054413       0.49375417       0.51659740
Cl       1.67040500       0.89970800      -0.47280100       0.72804802       0.58978180      -0.07581001
6
Properties=species:S:1:pos:R:3:forces:R:3 charge=-1.0 dipole_moment="-2.0794494748595644 0.25051778325302804 -2.6929140315220144" energy=-12.60465396735068 pbc="F F F"
C       -1.06385000      -0.74502800      -1.74090900      -3.40220017      -1.12946873      -0.45694060
H       -0.53270900      -1.35675800      -2.47815000      -0.99149716      -0.03433246       0.15059569
H       -1.64930500      -1.18140600      -0.86417700       0.72496476       0.22186565      -1.86232472
H       -0.44119500      -0.07301200      -1.37966900       3.42842491       2.45142055       2.12998841
Br      -2.18621500       0.80695900      -2.56739600       0.27429353      -1.49728615       0.08957827
Br       2.44353800      -0.60463500       3.00075200      -0.03402392      -0.01239426      -0.05099321
6
Properties=species:S:1:pos:R:3:forces:R:3 charge=-1.0 dipole_moment="0.6515261567094648 1.0113735391966139 0.3190541696792039" energy=-13.878232111719601 pbc="F F F"
C        1.46047400       2.31632400       0.59339700      -0.53741202       0.45094993      -0.46521081
H        0.61471600       1.66085800       0.79178800       0.38955095      -0.29599262      -0.22987721
H        2.22724000       1.90044700      -0.05519100      -0.19600344      -0.33734470       0.28588355
H        1.07010400       3.21118200       0.09506600       0.19080775      -0.06407395       0.37466581
Cl       2.18743200       2.76024200       2.16231400       0.10783825       0.14621351       0.01122698
I       -0.94077800      -1.27536900      -0.77644100       0.04567771       0.10082428       0.02471653
6
Properties=species:S:1:pos:R:3:forces:R:3 charge=-1.0 dipole_moment="-2.4057914730826533 -2.6088235393457353 0.5815011947899726" energy=-11.829986467076386 pbc="F F F"
C       -0.05284200      -0.10065200       1.69233900      -5.13564680       0.73649307       1.78619949
H       -1.00262800       0.74097200       2.09426300       3.71079994      -2.09519469      -1.56921328
H        0.97854100       0.08185000       1.85724600       0.81014644       1.20243202      -1.05136016
H       -0.25862600      -0.90575400       2.39701800      -0.20073684      -0.34300216      -0.24361770
I       -0.84899300      -0.91066500      -0.21525100       0.85379349       0.57772384       0.98336630
Cl       2.68214100       2.87953500      -0.29966300      -0.03852438      -0.07844848       0.09452044
6
Properties=species:S:1:pos:R:3:forces:R:3 charge=-1.0 dipole_moment="-0.6642973195092123 2.485677652321003 0.29957780244440174" energy=-11.28698694388193 pbc="F F F"
C        0.48578400       3.04819700      -0.09886600       2.24496404      -6.86848304       2.89963894
H        1.13435200       2.02910800      -0.39738700      -1.90187035       3.36049071      -0.44023203
H        1.03448500       3.26994200       0.83548000      -1.11878631      -0.26263461       0.26477531
H        0.42229300       3.96873900      -0.55049100      -1.13278854       1.35179153      -2.16328471
Br      -1.29338200       1.63259600       0.41365900       1.87050803       2.35898476      -0.55532439
Br       1.13607200      -2.41993800      -0.39349900       0.03827859       0.05959972      -0.00570425
6
Properties=species:S:1:pos:R:3:forces:R:3 charge=-1.0 dipole_moment="1.0854863950677116 -1.1033180795320814 0.4041299898215527" energy=-14.58595575040303 pbc="F F F"
C        3.17428200      -3.50702100       0.88723700       3.78563653      -2.14512552       2.99688527
H        4.16736100      -2.87511300       1.00467100      -1.43049711      -1.28246018      -1.96625952
H        3.45673200      -4.57794600       1.32016300      -0.59045748       2.39043964      -0.36761122
H        2.62972800      -2.92629900       1.57438500      -1.77360726       0.17154453       0.67788991
F        2.54460500      -3.78250300      -0.25527200      -0.00173190       0.86122861      -1.36204046
I       -0.98492400       1.23517000      -0.13066400       0.01051016       0.00411171       0.01982681
6
Properties=species:S:1:pos:R:3:forces:R:3 charge=-1.0 dipole_moment="-0.6191346904736412 1.8575585911664088 0.8976639401906558" energy=-12.625287464283002 pbc="F F F"
C       -0.60186300       0.77622400       0.09211200       2.04542893      -3.18370575       0.16226233
H       -1.53617200       0.32148500       0.27382300      -0.75376266      -1.07316980       0.93267391
H        0.31581600       0.06432900       0.42388300      -2.49629916       1.65567383      -1.39039407
H       -0.73931100       0.92057000      -0.96073200       1.13606464       0.67301561      -0.59925991
I       -0.59198200       2.41758500       1.27941600       0.08713315       1.89724750       0.87600628
I        0.69709300      -2.53010800      -1.28488100      -0.01840447       0.03039404       0.01841887
6
Properties=species:S:1:pos:R:3:forces:R:3 charge=-1.0 dipole_moment="2.2607297118824197 0.8558594697333228 0.18087806234282655" energy=-13.643278461946723 pbc="F F F"
C       -0.82893900      -0.36356900       0.01830500       1.24577054      -0.08372130      -1.40443847
H       -0.86274400      -1.38783900       0.25487700       0.86078226      -1.51335092      -0.51952589
H       -1.03720000      -0.14005000      -1.01675600      -0.76529354       0.03668553       0.53212943
H       -1.38941900      -0.03757200       0.82588100      -1.08142973       1.98786090       0.82718360
Br       1.10063600       0.44479300       0.05327200      -0.73156735      -0.55074731       0.44102701
F       -3.36214100      -1.31343200      -0.22648300       0.47213582       0.12315019       0.12348907
6
Properties=species:S:1:pos:R:3:forces:R:3 charge=-1.0 dipole_moment="0.9295807344686031 0.8180471121524837 0.2470437348656764" energy=-13.352465990042521 pbc="F F F"
C        2.35649700       1.91987200       0.36815800      -5.00975015      -2.13946190      -1.53364361
H        2.13976200       0.85131800       0.54401400       0.81643330       0.24627262      -0.81687142
H        3.35748700       2.11701000       0.19848800       1.76345603       0.86089745       0.02327826
H        1.60531300       2.16449100      -0.50940000       2.01743939      -0.17636278       1.63379426
Cl       1.57855700       2.49891600       1.84171800       0.31875254       1.15710861       0.70183254
I       -0.90711400      -1.11572900      -0.63681600       0.09295824       0.05183756      -0.00715487
6
Properties=species:S:1:pos:R:3:forces:R:3 charge=-1.0 dipole_moment="-0.33520730403166515 2.508141224909438 4.115120119089182" energy=-12.914366216774257 pbc="F F F"
C        0.11590000       0.78673100       0.40078600       2.69309450      -3.85945548       4.87853852
H        0.22687900      -0.29910500       0.54922500      -0.19000402       0.52233250      -0.96142450
H        0.99945700       1.14738700      -0.03898200       1.11832763       1.22345285       0.36811772
H       -0.71593000       1.03317700      -0.03665500      -4.47636087       1.41243357      -2.44992622
Cl      -0.31132200       1.00670200       2.31881100       0.85333635       0.66810224      -1.87103099
F        0.45407500      -2.63508700      -4.69978700       0.00125676       0.03312455       0.03703931
6
Properties=species:S:1:pos:R:3:forces:R:3 charge=-1.0 dipole_moment="-1.3613470041118525 1.4336077397459768 -2.7175932690910805" energy=-12.31683714458768 pbc="F F F"
C       -1.10644400       1.76158800      -0.98821000      -0.91499038       4.95286243      -3.47006907
H       -0.32902300       2.67516100      -1.21552900      -1.76311407      -2.72266681       1.33913964
H       -0.87071000       0.98866900      -0.32356200       0.43837672      -0.84046129       0.88508896
H       -2.16079200       2.26817800      -0.94441700       2.16021996      -1.28607155       0.62236231
I       -1.25977600       1.02377900      -3.08470700       0.11597733      -0.14599188       0.66341820
I        1.44844000      -1.33512900       3.24343900      -0.03645362       0.04244994      -0.04016732
6
Properties=species:S:1:pos:R:3:forces:R:3 charge=-1.0 dipole_moment="-3.410404244237104 1.7479252442134239 -0.029660382652103297" energy=-14.51035039781932 pbc="F F F"
C       -1.62228200       1.30054100      -0.03545200      -4.56693210      -0.58032528      -6.44428030
H       -1.11392300       1.64695600       0.67069600       4.31655857       2.67625737       6.24514628
H       -2.48350300       1.93502000      -0.27077300      -0.46032160      -0.17337824       0.74216390
H       -1.12829900       1.34805600      -0.94626600       1.76605490       0.42073432      -1.57095443
F       -1.94768100       0.02436000       0.09013500      -1.06221690      -2.37202745       1.02993824
F        3.55428200      -1.43916900      -0.00579600       0.00582406       0.02641294      -0.00188822
6
Properties=species:S:1:pos:R:3:forces:R:3 charge=-1.0 dipole_moment="-5.317834083258681 0.7262057613730761 0.5886937714359564" energy=-13.41885088733311 pbc="F F F"
C       -1.57642600       0.04366700      -0.73964900       0.89026613      -1.66632488       3.01187737
H       -1.44785100      -1.02268500      -0.92519400       0.18784738       0.22737604       0.45954564
H       -0.70741300       0.60892400      -0.74562000       1.75990739       0.55018681      -0.78934261
H       -2.28563100       0.40944800      -1.34355100      -2.57349551       1.45694554      -2.18920143
Cl      -2.09306800       0.41600700       0.98130900      -0.24564887      -0.56948037      -0.48029342
F        5.49795600      -0.81442300      -1.02555400      -0.01906319       0.00136063      -0.01168464
6
Properties=species:S:1:pos:R:3:forces:R:3 charge=-1.0 dipole_moment="-2.5910220179823678 -2.5520422954750246 -1.713967942611542" energy=-11.601196413234145 pbc="F F F"
C       -2.51363000      -0.38886500      -0.13182100       5.70300395       1.23953304      -2.13943670
H       -3.47886400      -0.60817000       0.22512500      -0.35377045      -0.85384337       1.42847828
H       -2.62734500       0.12442700      -1.06089100      -0.52642776       0.82374449      -0.35088105
H       -1.45417300       0.08877100       0.25501900      -3.79357455      -0.92188556       0.50375834
I       -1.19909700      -1.90634400      -1.24497100      -0.97897640      -0.27034226       0.57077980
Br       2.46269400       2.96469700       1.92443200      -0.05008201      -0.01720120      -0.01265857
6
Properties=species:S:1:pos:R:3:forces:R:3 charge=-1.0 dipole_moment="0.31093077031983835 1.4521665136976614 2.1221440213850657" energy=-12.872472681213415 pbc="F F F"
C       -0.03716300       0.46517900       0.97982100       0.89542685      -1.39882472      -0.11547648
H        0.19219100       1.11416000       0.16312700      -0.77354935      -0.15041932      -0.91552517
H       -0.99325300      -0.11130200       0.99464600       0.71609959       1.17935328       0.05288091
H        0.79684500      -0.25381400       1.00288000      -0.53140541       0.17689757       0.07707911
I        0.40869700       1.82814500       2.53917700      -0.31540445       0.12510783       0.77833315
I       -0.40441100      -1.89493900      -2.69086700       0.00893716       0.06801031       0.12322681
6
Properties=species:S:1:pos:R:3:forces:R:3 charge=-1.0 dipole_moment="-4.355080816991462 1.5396305105912844 0.6030503491585534" energy=-12.572962474636197 pbc="F F F"
C       -1.29565400       0.86456700       1.21192200       6.16544414       0.99817431      -2.90367454
H       -0.21339200       0.40837800       1.59647700      -2.88110951       0.41664576      -1.65829893
H       -1.94189100       0.64612500       1.98794800      -2.05854876      -0.02910952       0.79285011
H       -0.90775300       1.94268200       0.97107000      -1.73073205      -1.87199207       0.85946226
Cl      -1.78584700       0.26322000      -0.60816100       0.51047200       0.47033142       2.87832912
F        4.57737300      -1.40659100      -0.16536500      -0.00580401       0.01567242       0.02977029
6
Properties=species:S:1:pos:R:3:forces:R:3 charge=-1.0 dipole_moment="-0.8143296422482725 -2.4332944002472883 -1.9329838065197047" energy=-14.262304764641188 pbc="F F F"
C       -0.65271400      -2.24181800      -1.58954000      -6.06957592      -3.80149047       1.62986047
H        0.22341600      -1.73379800      -1.69734700       1.66711216       2.68031405       0.53015688
H       -0.37060600      -3.25985700      -1.38619300       0.53136530      -0.57276881       0.46631125
H       -1.69950500      -2.18684900      -0.87873400       3.85981800       1.27974767      -1.03344265
F       -1.28997400      -2.36015200      -2.80647000       0.00953108       0.44047577      -1.58129695
Cl       1.02192600       2.46310500       2.27986700       0.00135137      -0.02585142      -0.01194689
6
Properties=species:S:1:pos:R:3:forces:R:3 charge=-1.0 dipole_moment="-0.2946421666014728 -0.7576828093890451 -0.29597093057719864" energy=-14.458572445195065 pbc="F F F"
C       -1.26118600      -2.67520700      -1.39914400       0.25121582      -2.87385849       0.04815008
H       -2.09481200      -3.35489400      -0.88481000       2.72766709       1.33966877       0.25653132
H       -0.95146700      -1.70016500      -0.97503800       0.37239347      -1.21450489       0.82343339
H       -0.27972500      -3.42557100      -1.80858200      -2.93370915       2.42983254       1.27172634
F       -2.04778500      -2.27536600      -2.43241700      -0.37935499       0.40178426      -2.36194410
I        0.55326800       0.84924800       0.64066100      -0.03754325      -0.08265892      -0.03804050
6
Properties=species:S:1:pos:R:3:forces:R:3 charge=-1.0 dipole_moment="2.394799404064822 0.3738330069851411 -1.3736360864727766" energy=-12.001093959499855 pbc="F F F"
C        2.39144200       0.38760500       0.08829500       0.82840950      -1.66635934      -4.87147107
H        2.82890600       0.81460000      -0.89198000      -0.32939382      -0.17345177       1.90573163
H        2.52756200      -0.72614400      -0.13976100       1.29962230       1.66789017       1.92371496
H        2.68557300       0.97840700       0.93627000      -0.37624498      -0.51680514       0.56080598
I        0.38405400       0.06813700      -0.53911200      -1.37871612       0.70500220       0.55254554
Cl      -2.51444400      -0.41198500       1.65521200      -0.04356478      -0.01556855      -0.07256014
6
Properties=species:S:1:pos:R:3:forces:R:3 charge=-1.0 dipole_moment="-2.7031462020654766 -0.4142849004922728 -1.2145024448892288" energy=-12.891485930353568 pbc="F F F"
C        0.53846400       0.39912800       0.49104600       2.05590824      -2.70445106       0.37764366
H        1.28915000      -0.41005300       0.21043300      -0.86098589       1.36587963      -0.23777307
H        0.37210800       0.03724200       1.50732300      -0.51419650       0.81396967      -0.01026282
H        1.10156600       1.35526900       0.45753300      -1.20868289      -0.33776482      -0.43995435
I       -1.27155600      -0.24202000      -0.63749300       0.71880336       0.84244053       0.37046463
Cl       3.61169900       0.55587400       1.68621000      -0.19162536       0.01988697      -0.06040293
6
Properties=species:S:1:pos:R:3:forces:R:3 charge=-1.0 dipole_moment="-1.2732056603887076 -2.3282712451527354 -2.9443404120455807" energy=-12.29954411188042 pbc="F F F"
C        0.71143400      -1.05182800      -1.21453900       1.81299193      -2.43126413      -4.74067390
H        1.35385800      -0.78166500      -2.19284300      -1.59731236      -0.04672826       2.46282031
H        0.87030200      -2.14383500      -1.16976100       0.99349953       0.86782246       1.06591517
H        0.92800000      -0.46998200      -0.37801900      -0.21159666       0.90199139       1.34248362
I       -1.25451700      -1.43371100      -1.88686900      -1.00118148       0.76176753      -0.06873536
Br       1.68767500       2.44837500       3.17234100       0.00308327      -0.05378337      -0.06217751
6
Properties=species:S:1:pos:R:3:forces:R:3 charge=-1.0 dipole_moment="1.2646329895775734 -0.4715974382823896 -1.2485407106043267" energy=-12.925451790589959 pbc="F F F"
C        1.56587300      -0.78121100      -0.38685000      -1.01315665       4.40485592       1.53426633
H        1.19366600      -1.41281000       0.37821100      -1.31888963      -0.69521812      -0.07927123
H        2.17991600      -0.01813000       0.22972900      -1.47824816      -0.58970981      -1.44858997
H        2.16186700      -1.14916900      -1.11065800       1.80219741      -1.73579096      -2.14985789
Cl       0.21471000       0.11509900      -1.59264400       1.88750611      -1.28166880       1.98420016
Cl      -1.09298600       0.31239400       1.75875000       0.11899632      -0.10149071       0.15946189
6
Properties=species:S:1:pos:R:3:forces:R:3 charge=-1.0 dipole_moment="-1.1163771147343757 0.09085813952217985 -0.6151071227240399" energy=-13.874428615669416 pbc="F F F"
C       -3.86875000       0.11847400      -1.83117400      -1.85370073      -7.39868055       1.76653570
H       -3.78078700      -0.98297500      -2.13187400       2.53503746       0.94712557       1.84831221
H       -3.51988300       0.60372200      -0.99832300       0.53597015       0.13431135       2.75223296
H       -3.43107200       0.52823100      -2.55771100       2.56190806       4.11111610      -6.42411822
F       -5.19730000      -0.02942900      -1.92690200      -3.74552937       2.19461618       0.07802836
I        1.52301800      -0.01122600       0.64183100      -0.03534033       0.01147483      -0.02104140
6
Properties=species:S:1:pos:R:3:forces:R:3 charge=-1.0 dipole_moment="-1.631559175610435 0.09795070167536699 0.36018446837027845" energy=-13.627784095247353 pbc="F F F"
C       -3.29194400       0.22417700       0.83485400       9.85359266       2.12612507       0.86349889
H       -2.69694400       0.78679500       1.82890600      -1.56517048      -1.72422459      -3.01007400
H       -3.82872700       0.93640200       0.42864600      -5.38912930       2.53370409      -1.14539826
H       -2.56409300       0.21120400      -0.11746900      -0.31808714       0.11873767       2.38780940
F       -3.50160500      -1.01858400       1.09166100      -2.54343417      -3.07593436       0.91201921
Br       1.72445300       0.16822300      -0.48497600      -0.03764198       0.02047678      -0.00752922
6
Properties=species:S:1:pos:R:3:forces:R:3 charge=-1.0 dipole_moment="-0.05759035582566283 1.4251959388068538 -1.5024293526886465" energy=-14.31212753496201 pbc="F F F"
C        0.21469700       0.46648200      -0.64975700       0.01582977      -6.77205329      -6.09672934
H       -0.49142900      -0.36558400      -0.49891700       1.04406594       0.24825288       1.77518797
H        1.11071200       0.59938400      -0.17872600       1.45370235       0.90858062       2.41592853
H        0.57135000       0.14412800      -1.75222900       0.75293528      -0.86394832       2.06621219
F       -0.48170500       1.42918500      -1.13472100      -3.27968401       6.36555003       0.02368243
F        0.20628100      -1.78216500       1.83787800       0.01234952       0.11445061      -0.18449929
6
Properties=species:S:1:pos:R:3:forces:R:3 charge=-1.0 dipole_moment="0.4610567574251684 -0.05665477051738597 -0.32080892130943356" energy=-14.902231268840161 pbc="F F F"
C        2.19334800       0.04420400      -0.93192100       1.50736488      -3.39730171      -1.99704951
H        2.72226400       0.11959800      -1.91228800      -0.24875374       0.17552511       0.32291258
H        1.13284000       0.30190700      -1.08828300       0.91443708      -0.00547954       0.84533559
H        2.38940500      -1.08143200      -0.63400300      -1.17849968       2.08031469      -0.52343602
F        2.92743700       0.75779300      -0.04572100       0.04185756       1.25208825       0.94913566
I       -0.86323600      -0.12123500       0.18184100      -1.03575767      -0.10446136       0.40408077
6
Properties=species:S:1:pos:R:3:forces:R:3 charge=-1.0 dipole_moment="2.2202354841984424 2.6891843905419606 0.5639282779815685" energy=-11.852007359067317 pbc="F F F"
C        0.89316100       3.28115700      -0.01789400       1.45226099       4.24890410      -3.35122856
H        1.06528800       4.38661700       0.10895600       0.89130846      -1.01249382       1.18864319
H        0.20661700       3.02619600       0.66437300      -3.43692395      -0.73413177       1.46722995
H        0.60048100       3.53758000      -1.10212100       0.26010001      -2.43167088       1.22202434
I        2.36854300       1.97415700       0.66192500       0.84306273      -0.08195906      -0.52623801
I       -2.50498400      -2.55222000      -0.65369600      -0.00948994       0.01121464      -0.00041292
6
Properties=species:S:1:pos:R:3:forces:R:3 charge=-1.0 dipole_moment="0.12149379577335229 4.118401017794678 -3.8264857013592413" energy=-12.876425305418051 pbc="F F F"
C       -1.28921100       0.28974300      -1.23163400       0.25084816      -1.55386585      -0.57047693
H       -2.19858400       0.84914000      -0.87578700       1.38314768       0.00539675      -0.85206931
H       -1.38449600      -0.71562000      -0.75474300       0.46137113       0.88093920      -0.15731347
H       -1.14852100       0.05707900      -2.35424000      -0.66027425       1.00900329       1.88719140
Br       0.48164000       1.06836300      -0.64342000      -1.41589530      -0.34103681      -0.29163460
F       -0.48783800      -4.36908600       3.76603100      -0.01881636       0.00011930      -0.01535052
6
Properties=species:S:1:pos:R:3:forces:R:3 charge=-1.0 dipole_moment="3.701885635359879 -0.5220015675885955 -2.579024512264464" energy=-12.388777363985838 pbc="F F F"
C        0.15090500      -0.77295700      -0.59120600       1.46450304      -0.36874302      -1.45063914
H       -0.54025500      -0.63809300      -1.40552000       0.15447497       0.13664849      -0.07242284
H       -0.06521800      -0.29409000       0.27493800      -0.68971750       3.20559870       1.92304338
H        0.06375900      -1.71424300      -0.07864500       1.22972685      -1.54454149      -1.20444725
Br       2.05710300       0.03294400      -1.24005000      -2.22603403      -1.39896665       0.85300519
Cl      -4.25660700       0.36065500       2.83283500       0.06641366      -0.03032154      -0.04840411
6
Properties=species:S:1:pos:R:3:forces:R:3 charge=-1.0 dipole_moment="1.1883679699911125 -1.7162328210727553 0.31413546750701304" energy=-13.848744689489177 pbc="F F F"
C        2.37621100      -3.36718400       0.59171400       2.75175679       4.86820371      10.46381678
H        1.74152900      -2.92234900       1.44043000       0.06690474      -0.75671634      -1.85919003
H        3.01512500      -4.04368200       1.19168700       0.89318074       0.62851958      -0.64609822
H        2.04223900      -3.83362300      -0.09737300      -5.92336704      -6.82224072      -7.69543267
F        2.91982300      -2.36822000      -0.10361000       2.22997862       2.09315735      -0.27748427
Br      -1.35241600       1.49476400      -0.14721500      -0.01721714      -0.00916187       0.01338362
6
Properties=species:S:1:pos:R:3:forces:R:3 charge=-1.0 dipole_moment="-0.9615255751387107 1.2201291861691541 1.3272346535872754" energy=-11.992474690699183 pbc="F F F"
C        0.47539400      -0.38990800       1.16191100      -2.84181534       1.38417046       1.48434065
H        0.85325400      -1.09831500       0.29590500      -0.73199981       1.17309162       1.17445276
H       -0.60219100      -0.66656700       1.88963900       4.58132925      -0.22672709      -1.46325040
H        1.20536900       0.43113000       1.59259200      -1.32448692      -2.49171642      -0.41049156
Br      -0.88171400       1.01797000       0.46527800       0.29070077       0.20878491      -0.92286875
Cl       1.56183400      -1.87974900      -1.59025400       0.02592135      -0.04712524       0.13813818
6
Properties=species:S:1:pos:R:3:forces:R:3 charge=-1.0 dipole_moment="1.1434614627254542 2.425757858414438 -0.45257616344867235" energy=-13.229202902581962 pbc="F F F"
C        1.08935200       2.54213700      -1.38117200      -0.81327959       1.89709632      -0.43223590
H        1.47895400       1.57261800      -1.35206000       0.33360117      -1.38007006       0.13371126
H        1.43175300       3.07668600      -2.27707400       0.04694269      -0.16014374       0.46284334
H       -0.00835200       2.58245500      -1.36649200       0.54811604      -0.25603819       0.22613317
Br       1.75818600       3.49550100       0.19813900      -0.13037140      -0.13347060      -0.36155164
I       -1.33915000      -2.73258700       0.11977000       0.01482241       0.03219227      -0.02941599
6
Properties=species:S:1:pos:R:3:forces:R:3 charge=-1.0 dipole_moment="-3.3550639499107584 -0.47471746711587404 -0.33737322635450295" energy=-11.72888751292386 pbc="F F F"
C       -3.29590700      -0.08396100      -1.92680000       3.12624314      -0.29649861      -0.33937999
H       -3.14640500      -0.90550000      -2.64209300       0.14502257      -0.44523591       1.14934388
H       -2.45520200       0.59401400      -2.09636900       0.74656254      -0.63143573       0.46446057
H       -3.92524800       0.53605800      -2.48299100      -3.03455862       0.94721350       0.77194087
I       -2.94238100      -0.57002000       0.27130400      -0.98052112       0.42227904      -2.03765957
I        3.49525400       0.57528800       0.08307800      -0.00252945       0.00374044      -0.00877106
6
Properties=species:S:1:pos:R:3:forces:R:3 charge=-1.0 dipole_moment="-0.7114893431472956 -4.176705762854603 -3.174565836805117" energy=-11.120273802485217 pbc="F F F"
C       -1.25239300      -1.32675400      -0.11926500      -1.96008630      -1.81810329      -7.49130814
H       -2.14545400      -0.97863400      -0.59697500      -0.38178314       0.18770443       0.28128899
H       -1.31648900      -1.67231500       0.73065100      -0.43450515      -0.21720270      10.37956327
H       -1.17964100      -2.43688600      -0.25066800      -0.40839303       0.04721369      -2.23260474
Br       0.22881500      -0.66914300      -0.83776000       3.19466482       1.79555008      -0.95243130
F        0.46082300       4.05204200       3.35046500      -0.00928734       0.00500954       0.01525693
6
Properties=species:S:1:pos:R:3:forces:R:3 charge=-1.0 dipole_moment="2.0087450494017083 1.4800509776311122 2.4248974162700616" energy=-12.338538200724944 pbc="F F F"
C        2.83730300       0.56894900       1.29211600       3.64265747      -0.10151744       0.02584627
H        3.40012400      -0.02175300       2.04518200      -0.40747052       0.58200524      -0.09021230
H        3.74446700       1.11432000       0.70648500      -2.78992225      -0.49608925       1.39465645
H        2.47119800      -0.21462400       0.66204900      -1.02453481       0.16145089      -0.60125355
I        1.36042900       1.63720300       2.42614500       0.55264632      -0.13949624      -0.73280508
I       -1.86306300      -1.71817700      -2.63683300       0.02640112      -0.00583640       0.00453131
6
Properties=species:S:1:pos:R:3:forces:R:3 charge=-1.0 dipole_moment="1.9590087417352342 0.6875758250019157 0.17061731622999365" energy=-13.589121289604122 pbc="F F F"
C        0.18214600       0.71253900       0.79055900       3.80279710       2.60618915       0.26292206
H       -0.02019300       1.80349300       0.44289400       1.33618287      -1.67179465       1.00262078
H        0.54351900       0.50631200       1.87443300      -0.08304098       0.73931563      -2.26168906
H       -0.73423900       0.34675800       0.68994400      -4.13102313      -2.83578816      -0.86861436
Cl       1.35454700      -0.08346000      -0.52505700      -1.22920646       0.91090747       1.69333381
F       -2.65658500      -0.61255300       0.13059300       0.30517917       0.25083273       0.17054591
6
Properties=species:S:1:pos:R:3:forces:R:3 charge=-1.0 dipole_moment="0.5047646783088995 1.1298557874646473 1.1741579743558415" energy=-13.989744261879606 pbc="F F F"
C        1.36896100       3.38271700       3.57595000       3.25714572       0.47716542      -3.68688971
H        0.91452900       4.42023900       3.44803700       3.04070767      -0.03091289       0.49279670
H        1.77501600       2.93725700       2.48698200      -0.51543835       1.66578804       2.68963070
H        2.17599200       2.99851700       4.34737100      -1.90733189       1.48377346      -1.05000467
F        0.19284400       2.85249400       3.68818700      -3.89115101      -3.59831262       1.56210418
I       -0.27952600      -1.06273100      -1.22512800       0.01426294       0.00192987      -0.00744334
6
Properties=species:S:1:pos:R:3:forces:R:3 charge=-1.0 dipole_moment="0.093764909939807 1.7389556904943666 0.9725165858021216" energy=-12.521724556143816 pbc="F F F"
C        0.61676800      -0.58674800       0.95812200       6.82834143      -1.47100331      -1.03538641
H        1.39758400      -0.98913100       0.00149800      -2.24443079       0.83769427       2.98952831
H        0.30243000      -1.59155900       1.23446400      -1.57301594       0.66644079      -0.30308218
H        1.31529400      -0.12689100       1.80484500      -1.66469840      -0.86861847      -1.67510006
Br      -0.20384900       0.80331000       0.04390300      -1.55474208       0.75699659      -0.15477528
F        0.04653200      -2.43197400      -1.14734900       0.20853088       0.07895447       0.17803451
6
Properties=species:S:1:pos:R:3:forces:R:3 charge=-1.0 dipole_moment="-1.1585102042394688 -0.6046913276885117 0.5523694601712228" energy=-13.627469998182136 pbc="F F F"
C       -2.78946600      -1.35359100       1.06799800       1.39619088      -0.79046927       0.53815816
H       -2.92098800      -0.31010000       1.01741100      -0.24338064       1.09336736      -0.30621892
H       -3.71146400      -1.88381900       1.21344500      -0.23472220      -0.28181555      -0.39047809
H       -2.09042300      -1.70607300       0.31678400      -0.81046834       0.05872554      -0.62012647
Cl      -1.78723600      -1.65069700       2.51889400      -0.02401976      -0.04931479       0.78928142
I        1.05363600       0.75629000      -0.97692100      -0.08308983      -0.03118851      -0.00934853
6
Properties=species:S:1:pos:R:3:forces:R:3 charge=-1.0 dipole_moment="0.8618804480351182 -0.021413685002676396 1.9804991574334425" energy=-12.988490629812308 pbc="F F F"
C        0.42575300      -0.88631900       0.87662300       2.36989498      -1.00646869      -0.00246157
H        1.19778900      -0.64465500       0.13325700      -0.24385527      -0.44408509       0.33664947
H       -0.47095400      -0.68783100       0.38733900      -1.82520879       0.94032037      -0.19432193
H        0.45612300      -1.95327900       1.17776000       0.19877046       0.87271630       0.01851400
I        1.03220900       0.37508500       2.53286900      -0.52799150      -0.31554072      -0.24203544
I       -1.10272800      -0.21275100      -2.66415400       0.02852279      -0.04638116       0.08439287
6
Properties=species:S:1:pos:R:3:forces:R:3 charge=-1.0 dipole_moment="-3.1084345608009536 -1.1331642033850926 1.3356803218678746" energy=-13.4121485584621 pbc="F F F"
C       -2.97451500      -1.19410700       1.07809400       3.31569900       1.93131000      -4.95309383
H       -3.37214100      -0.78778200      -0.02287600      -1.73493015       0.09568104       3.64000821
H       -3.12458300      -2.25967200       0.98217900       0.52877774      -0.10680158       0.46966705
H       -1.95552700      -0.72032700       0.49574200      -1.34379282      -2.13296883       2.96118858
F       -3.09642500      -0.76587500       2.40420700      -0.74128921       0.22176024      -2.11437153
Cl       3.18630400       1.04854700      -1.73891000      -0.02452781      -0.00889242      -0.00469329
6
Properties=species:S:1:pos:R:3:forces:R:3 charge=-1.0 dipole_moment="0.35284954305465305 -0.8624768307514237 -0.09175350736245386" energy=-11.288499808050858 pbc="F F F"
C       -0.29539900      -1.97016100      -0.02957300      -6.22952992      -0.71349249       1.25671058
H       -0.78254100      -2.28292700      -0.97944000       0.33584163      -0.04988763       1.05560505
H       -0.93090000      -1.15902700       0.43748800       0.29804744       0.39459289      -1.90804974
H       -0.67377900      -2.44444700       0.88702400       1.69184617      -1.96632482      -0.26992574
Br       1.26353800      -1.22524100      -0.26132300       4.91042534       0.20455853      -0.41101555
I       -0.75592900       1.14322300       0.16940900      -1.00752182       2.12996784       0.27670729
6
Properties=species:S:1:pos:R:3:forces:R:3 charge=-1.0 dipole_moment="0.6493533550828895 -0.21547037659738483 1.8811932329218215" energy=-13.398846492341614 pbc="F F F"
C        1.30602600      -0.77780200       2.65810700       2.75639095       0.49479701      -1.62434494
H        1.05927000      -1.70142500       3.12844700      -0.71007241      -0.53523173       0.16738191
H        2.27230200      -0.42281900       3.13273100      -0.74269406      -0.81554216      -1.11339111
H        1.31653400      -0.81660500       1.52184200       0.63464910      -0.63119148       1.55633206
Cl       0.25311000       0.52877500       2.92249600      -1.99661036       1.52976844       0.95690965
Br      -0.47963200      -0.03947200      -2.09754600       0.05791667      -0.04192853       0.05747136
6
Properties=species:S:1:pos:R:3:forces:R:3 charge=-1.0 dipole_moment="-2.6744351633291252 0.9460577252739296 1.1730853321500287" energy=-12.518821015692785 pbc="F F F"
C       -0.96937000       0.73168700       1.22953700      -2.42490322       4.13776456       7.44740450
H       -0.00369400       0.88562500       1.53402000       2.70937318       0.54525080       0.39593192
H       -1.37979300       0.36029900       2.25518300       0.02684798      -1.13351205      -2.15233284
H       -1.46742500       1.75691500       1.39626300       0.62203835      -1.01697885      -1.37497517
Cl      -1.00652700       0.03347300      -0.19636600      -0.87389798      -2.57421902      -4.37650899
F        2.86423300      -0.88466700      -1.02494100      -0.06014633       0.04147910       0.05835222
6
Properties=species:S:1:pos:R:3:forces:R:3 charge=-1.0 dipole_moment="1.1430793967794273 0.1964443391687725 0.4398393971676113" energy=-12.984519971247742 pbc="F F F"
C        2.56492900       0.56594200       1.17215800       2.85856762       4.11241245      -0.94549755
H        1.84300700      -0.09040400       1.04075900      -3.09959879      -3.73677271      -0.36152233
H        2.24622900       1.35152700       0.32342200       0.48823350      -0.61980869       3.25687164
H        2.82326400       0.67564500       2.28859800      -0.79087242       0.87759162      -2.09162549
Cl       4.08540900       0.03488600       0.37825700       0.43270281      -0.65649885       0.08988886
I       -1.73120800      -0.11180200      -0.32294500       0.11221529       0.02285402       0.05142001
6
Properties=species:S:1:pos:R:3:forces:R:3 charge=-1.0 dipole_moment="-1.6671960856786463 -3.0734003835755743 -2.0206160817662875" energy=-12.758865830969349 pbc="F F F"
C        1.41492400      -0.25922200       0.16432300      -0.00040469      -1.86682775      -0.73453235
H        1.70031900       0.31449300      -0.65419100       0.87034728       1.03663185      -1.32477540
H        1.73904200      -1.31390000      -0.06391700       0.31703967       1.37103264       1.17213877
H        1.70626300       0.30963300       1.04366800      -0.60322301      -0.48578684       0.48065954
I       -0.63002200      -0.53003200      -0.40340800      -0.58026974       0.20955315       0.51453692
F        2.19511100       3.37075600       2.22990400      -0.00424901      -0.26475217      -0.10807890
6
Properties=species:S:1:pos:R:3:forces:R:3 charge=-1.0 dipole_moment="2.082142457684124 -0.7523920956378278 1.98246769665674" energy=-11.83581465770872 pbc="F F F"
C        1.28975300      -1.43577000      -0.36083600      -8.40361275      -0.76506883      -0.54806513
H        0.71156700      -2.31110400       0.06237300       1.54588669       0.48059424      -0.39301886
H        2.16176300      -1.66265000      -0.79399200       3.64292178      -0.00299688      -0.89178617
H        0.44804400      -1.13938700      -1.13690800       2.33370978      -1.00053201       0.33509910
I        0.53344600       0.05883900       0.85491500       0.73998669       1.40055096       1.44093117
Cl      -2.31368000       0.62407700      -2.42805600       0.14075454      -0.11268786       0.05684967
6
Properties=species:S:1:pos:R:3:forces:R:3 charge=-1.0 dipole_moment="1.4027694086231584 0.5834972512282194 2.0191126893110756" energy=-12.662445042589074 pbc="F F F"
C       -0.73959400      -0.25480000       0.97369400       3.77436635      -2.91933719       0.10217102
H       -0.75131500      -1.16156100       0.39025400       0.62796423       0.13621551      -1.38062697
H       -1.57395500       0.22369800       0.60239700      -1.33717583       2.07306727      -0.01759972
H       -0.54350900      -0.77055000       1.88951500      -1.14863374       0.99585004       1.45250165
Br       1.20367200       0.54370900       0.86738500      -1.88839931      -0.29009913      -0.35334056
Cl      -2.04836300      -0.92897700      -2.29898800      -0.02813456       0.00430403       0.19683287
6
Properties=species:S:1:pos:R:3:forces:R:3 charge=-1.0 dipole_moment="-0.5783372442480114 -1.1151298440490767 1.2515130989960639" energy=-11.415597235683313 pbc="F F F"
C       -1.67736200       0.40644800       0.89448400      -1.98920867       2.30036257       5.64117302
H       -1.95807200       0.93834000      -0.02975400       1.01519399      -0.50753066       0.37113928
H       -1.36662900       1.15398500       1.85483100       0.39156464      -1.35014345      -3.41192254
H       -2.71747600       0.31277300       1.61144300       2.22002639      -1.49461632      -2.50475140
I       -0.10016300      -1.14235600       0.85125000      -1.59187293       0.91031148       0.01852840
Br       0.61185600       1.59145900      -1.54056300      -0.04504470       0.14021512      -0.11523891
6
Properties=species:S:1:pos:R:3:forces:R:3 charge=-1.0 dipole_moment="1.8216025872402273 0.38677033142900585 -0.5024696367466841" energy=-13.493072623518353 pbc="F F F"
C        3.61397000       0.86012300      -1.14178200      -1.93737009       7.86220729       3.35696418
H        3.06534400       0.89249100      -0.14979600       0.87980997      -2.28196941      -1.09985837
H        4.28810200       1.84233000      -0.85642500       0.60788494      -3.89765847      -1.18523031
H        3.66635100       0.06305000      -1.84837300       0.56915589      -0.34399666       0.04821384
F        2.67795600       1.94185700      -1.65745900      -0.15162105      -1.31446631      -1.13823465
Br      -1.62300600      -0.72672300       0.70349800       0.03197784      -0.02275735       0.01733798
6
Properties=species:S:1:pos:R:3:forces:R:3 charge=-1.0 dipole_moment="1.1186959692710665 0.31218227442282187 -2.414873741547561" energy=-12.829165135964313 pbc="F F F"
C       -0.63314600       1.16039800       0.70415500       8.56011067       2.29720526      -0.88441122
H       -0.07698200       1.06148100       1.68206100      -0.51031311      -0.02035543      -1.14511544
H       -1.52930200       0.93980900       0.97255300      -6.10654222      -1.37215518       0.79755832
H       -0.25008900       2.05204900       0.10748500      -1.69550125      -0.63300616       1.38527706
I        0.36367500      -0.19020500      -0.67756800      -0.34716786      -0.52593359       0.15443075
F       -1.51327900      -0.10387300       3.21378500       0.10003238       0.25420345      -0.30814931
6
Properties=species:S:1:pos:R:3:forces:R:3 charge=-1.0 dipole_moment="0.19775881535981307 -1.7916829077549479 -0.4257601083033497" energy=-12.33678716569544 pbc="F F F"
C       -0.78044000      -2.05705800       0.08211500      -2.13591480      -5.37738553       2.74383059
H       -1.71105700      -1.68731900      -0.23150500      -0.88315652       1.21370682      -0.13181430
H       -0.79223400      -2.39210000       1.15904100       0.36219853       2.21037190      -0.30825112
H       -0.86928400      -3.16262900      -0.12003500       0.28219968       0.70104218      -1.33977779
Br       0.69032600      -1.35530800      -0.63783900       2.48489015       1.18520408      -1.01926147
Br      -0.46017600       1.91486300       0.60069000      -0.11135500       0.06409298       0.05464006
6
Properties=species:S:1:pos:R:3:forces:R:3 charge=-1.0 dipole_moment="-1.6322486935157996 1.6727529755667774 0.33050238945254207" energy=-12.678143505296012 pbc="F F F"
C       -1.50123400       0.37710700      -0.54865800      -1.73416807       0.59356903      -0.74815765
H       -2.36378600      -0.33222500      -0.26515600       1.12805308       1.67002933      -0.72561525
H       -0.60947300      -0.22132700      -0.58147600       0.96279645       0.25410472       0.84234694
H       -1.54899300       0.96421900      -1.51285400      -0.56031027      -1.32184949       0.96940058
I       -1.64247400       2.21637200       0.75623600       0.34024233      -1.27035183      -0.31199516
I        1.89775100      -2.26681200      -0.64960600      -0.13643560       0.07429769      -0.02607870
6
Properties=species:S:1:pos:R:3:forces:R:3 charge=-1.0 dipole_moment="0.41008640850365924 -0.8363629937645192 1.3945195359104678" energy=-15.119802846152472 pbc="F F F"
C        1.64297400      -2.22522600       4.36812200       1.86992696       0.37157997       0.84076160
H        1.13293500      -1.65893600       3.61862300      -0.46572606      -0.52387722      -0.81932528
H        1.05245300      -2.39852400       5.23715200      -0.87358379      -0.37639822       0.38265320
H        2.25261800      -3.09569400       4.13738400      -1.06230020      -0.43337130      -0.88840311
F        2.65882200      -1.37795700       4.80390900       0.53395235       0.97783329       0.46577954
I       -0.72123100       0.62087000      -1.55541600      -0.00209391      -0.01657436       0.01842761
6
Properties=species:S:1:pos:R:3:forces:R:3 charge=-1.0 dipole_moment="-0.06830090256747497 -0.12953728937392267 -2.1973607409173996" energy=-14.910766840615052 pbc="F F F"
C       -0.04804800      -0.22240000      -4.33697500      -0.72539619      -1.90851665      -0.36091966
H        0.07628200       0.05246400      -5.44176800       0.00739912      -0.38153477       1.70424249
H       -1.04441700      -0.01484900      -3.97246700      -0.52457553       0.09666629      -0.53139101
H        0.04241700      -1.40042400      -4.16702400       0.55943249       2.62351118      -0.37913696
F        0.74059900       0.54178300      -3.51282100       0.70162222      -0.41534735      -0.44678114
Br      -0.15575400      -0.06225300       2.03481400      -0.01883025      -0.01475248       0.01281849
6
Properties=species:S:1:pos:R:3:forces:R:3 charge=-1.0 dipole_moment="-1.2814872837340316 2.1782521518439393 3.044303574652722" energy=-11.16718715732236 pbc="F F F"
C        0.90475600      -0.48546200       1.27534200      -5.07432238       2.68905375      -6.14269656
H        0.81120800      -0.99982300       0.38144600       1.61457475      -0.04956676      -2.88633348
H        0.68912000      -1.28068900       1.72903900      -2.67036131      -5.23206780       5.96867143
H        1.64432400       0.08032000       1.48297800       4.87535858       3.71856827       1.23743245
Br      -0.68827200       0.82398500       0.46350600       1.26870735      -1.15334863       1.65959271
F        1.72403600      -2.63628100      -3.05202500      -0.01398217       0.02732157       0.16309691
6
Properties=species:S:1:pos:R:3:forces:R:3 charge=-1.0 dipole_moment="-2.1161235722604808 4.551085939075466 -1.7700702521210994" energy=-11.65283305712131 pbc="F F F"
C        1.50855900       0.74774600      -0.04682300      -2.66586600      -1.32108381       5.08689868
H        1.78197400       1.63421700      -0.39004800       0.54954917       4.19076117      -1.55853189
H        2.39244300       0.18312700      -0.09992700       0.08158368      -2.52419306      -1.10300540
H        1.32972100       0.82079600       1.08782600       0.86431342       0.23786563      -1.69514027
I       -0.69872500       0.64452100      -0.33159000       1.15011469      -0.62024783      -0.72599988
F        2.49743600      -4.58713600       1.91748500       0.02012814       0.03674621      -0.00412919
6
Properties=species:S:1:pos:R:3:forces:R:3 charge=-1.0 dipole_moment="2.3093409887992356 -1.2991464564277575 1.1200887636892707" energy=-13.216024488923177 pbc="F F F"
C        2.53352900      -2.12001600       0.57902300      -0.88070831       1.90619803      -0.26836663
H        2.91209900      -3.09436400       0.62250800       0.43197210      -1.30156554       0.04850129
H        2.87074000      -1.58260000      -0.31553400       0.04294000      -0.21223275       0.44446921
H        1.43610100      -2.07584500       0.60004500       0.51294283      -0.12873566       0.16251122
Br       3.20743000      -1.16503100       2.16147900      -0.13149908      -0.23294711      -0.38690992
I       -2.54113500       1.13677300      -1.51005500       0.02428510      -0.03118131      -0.00060421
6
Properties=species:S:1:pos:R:3:forces:R:3 charge=-1.0 dipole_moment="-1.2455540344279044 0.2713170935142398 0.4554898131700368" energy=-13.059252252354991 pbc="F F F"
C       -2.19425500      -0.11557600      -0.14957900       1.32340912      -1.27914037      -1.19273176
H       -1.64166500      -1.14844600      -0.26739800      -0.91086067       2.51356000       0.02515002
H       -1.99052500       0.62815600      -0.94124500       0.16175171      -1.11991657       0.06307174
H       -3.25718700      -0.25850900      -0.10471100      -0.49191789      -0.03449032       0.50338810
Br      -1.49793200       0.79796700       1.38048300      -0.22862508       0.01551764       0.74256859
I        1.36759500      -0.49918100      -0.86992600       0.14614100      -0.09525887      -0.14202672
6
Properties=species:S:1:pos:R:3:forces:R:3 charge=-1.0 dipole_moment="-0.9313942247692055 0.7315726766426147 -0.7048455232686667" energy=-15.258351910899483 pbc="F F F"
C       -2.76438900       2.51587500      -1.82812500       1.22406066      -0.86761831      -0.95663968
H       -2.36735400       1.47981900      -1.81143800      -0.45800452       0.56155983      -0.30901783
H       -2.38257500       3.05694400      -2.72273500      -0.11646533      -0.32597323       0.63254336
H       -3.83482200       2.54014900      -1.85348000      -0.65266019      -0.08836728       0.13140549
F       -2.30304200       3.10136500      -0.68897200       0.02549300       0.73327868       0.53936452
I        0.86600900      -0.94498900       0.44447500      -0.02147334      -0.01302418      -0.03706194
6
Properties=species:S:1:pos:R:3:forces:R:3 charge=-1.0 dipole_moment="2.2639894434994927 -0.2946723297024749 -1.235104901228111" energy=-12.8207862881699 pbc="F F F"
C        3.42068300      -0.53787600      -1.18385700       5.05509156      -3.14287457       2.44435824
H        3.48342900      -1.69074200      -0.93557700      -0.89754133       2.37762063      -0.31627759
H        3.43859400       0.04172800      -0.26924400      -2.10112674       0.27650931       0.13222465
H        4.56103600      -0.36669100      -1.25189900      -1.30475422      -0.17574571      -1.43726632
Cl       2.50649500      -0.21170800      -2.56067600      -0.76371848       0.66618625      -0.83827380
Br      -2.13193100       0.25262900       1.51689600       0.01194483      -0.00164551       0.01473602
6
Properties=species:S:1:pos:R:3:forces:R:3 charge=-1.0 dipole_moment="-0.01143022774817897 0.6887505984093675 -1.6610290544667354" energy=-12.699848301625956 pbc="F F F"
C       -0.36660800       1.28902800      -2.13553100      -1.28369226       2.04981112      -4.23906706
H       -0.62894600       2.11938800      -2.93380900       0.40718152      -0.11725928       3.40053615
H        0.03956300       1.18002000      -1.20439800       1.00428994       1.78638101       2.75273432
H       -1.27893800       0.79864500      -2.03554700      -1.36541272      -1.86923430      -0.51793180
Cl       0.86475000       0.61873600      -3.15208500       1.25551296      -1.93091507      -1.27023973
Br      -0.30379300      -0.63859200       2.07349600      -0.01685718       0.08081389      -0.12665409
6
Properties=species:S:1:pos:R:3:forces:R:3 charge=-1.0 dipole_moment="0.39877207056459374 0.27164782927084224 -2.773703516258796" energy=-12.626516029474331 pbc="F F F"
C        0.05208400       0.45905600      -3.56766900       1.48838448       2.58640091      -0.92487781
H       -0.77057400      -0.15903800      -3.78808000      -0.46334419      -0.79166278      -0.69660652
H       -0.08669800       1.53501500      -3.79129200      -0.10796166      -0.68797018      -2.07054193
H       -0.02107000       0.82194000      -2.56746100       1.47635583      -1.84149107       1.97869697
Cl       1.69962400      -0.10468000      -4.44195600      -2.38274278       0.71967343       1.74655308
Br      -0.80936500      -0.09064800       3.05903100      -0.00961387       0.01470671      -0.03381567
6
Properties=species:S:1:pos:R:3:forces:R:3 charge=-1.0 dipole_moment="-2.21862837300996 -0.18894272303181947 -0.699439978062757" energy=-12.708306221718376 pbc="F F F"
C       -2.95346600      -0.10205800      -0.51166200      -4.24894010       0.41209439       0.48736395
H       -1.99649300      -0.49700100      -0.03564000      -1.14781818       0.96053593      -1.39983516
H       -3.92172200      -0.38578600       0.20590200       2.71806659       0.11353427      -1.98129944
H       -3.25024000       1.00190200      -0.71983900       1.87914694      -1.83953652       0.61831076
Cl      -3.44062400      -0.78387800      -2.30754200       0.88421324       0.36507148       2.27605587
Br       2.43942500       0.39483300       1.22422200      -0.08502999      -0.01222457      -0.00171595
6
Properties=species:S:1:pos:R:3:forces:R:3 charge=-1.0 dipole_moment="-1.8655073620462883 -0.3833714262055543 -2.7355964069716725" energy=-12.11784785451238 pbc="F F F"
C       -0.31912300       0.50272900       0.66257200      -0.36968610      -9.63669695       1.58981605
H       -0.06130500       1.35969800       0.85738500       1.92398544       9.99509950       0.37971083
H        0.66362400       0.06888400       1.02986200      -1.19680799      -0.36353859      -0.39947336
H       -1.04578300       0.24558200       1.46171000       0.08788237      -0.31664115      -1.10578270
I       -0.66564800      -0.26228200      -1.23836300      -0.29178938       0.31307451      -0.27875594
Cl       2.21397300       0.54178900       3.42993400      -0.15363217       0.00843682      -0.18563932
6
Properties=species:S:1:pos:R:3:forces:R:3 charge=-1.0 dipole_moment="0.4254743526096452 0.17144283267847324 0.6987626312332353" energy=-12.50555427028046 pbc="F F F"
C        0.49685700       0.50614600       1.61973100       4.48838181      -2.83739356       2.53724192
H        0.09495300       1.30798200       1.14259200      -1.11953039       1.63856828      -1.78272748
H        1.10903000       0.96555400       2.57726600      -1.68781725      -1.90657650      -1.86402988
H       -0.06111200      -0.47688300       1.55502400       0.16807971       1.99533047       1.09160872
Cl       1.97582300      -0.28546900       0.54791100      -0.75565242       1.30934981       1.08287160
Br      -1.07751500       0.00055600      -0.69450700      -1.09276161      -0.19956390      -1.06576348
6
Properties=species:S:1:pos:R:3:forces:R:3 charge=-1.0 dipole_moment="-0.220619270856171 0.2051196703587561 1.15158486208482" energy=-13.741261561724246 pbc="F F F"
C       -0.42730800       0.36797200       2.53548100       3.43086180      -1.40737930      -6.15336201
H       -1.23820600       0.26099200       1.56999600       2.60215148      -0.85869967       2.90920602
H       -0.25688900      -0.27821900       3.37694700      -0.53619538      -1.62944704      -0.44519529
H        0.81273600       0.57474600       1.99141800      -3.84382265      -1.26414313       1.17632144
F       -0.69084900       1.49263000       3.08109700      -1.61063170       5.15359361       2.45548598
Br       0.27039600      -0.46282900      -1.42517500      -0.04231316       0.00600404       0.05705433
6
Properties=species:S:1:pos:R:3:forces:R:3 charge=-1.0 dipole_moment="-0.35024387446983674 -2.3383409582925547 2.1684168642083996" energy=-12.682315601616315 pbc="F F F"
C       -0.56110100      -1.74422300      -0.67292900      -0.46159378       1.35677227      -1.52766785
H        0.21472000      -1.35657000      -1.42100300      -1.58876550      -0.95262722       0.73592846
H       -1.63973200      -1.49777800      -0.97732100       1.87540701       0.02664794       0.38952679
H       -0.54114500      -2.82192000      -0.49961100       0.53883744       0.34833205       0.40903683
I        0.00483400      -0.45745200       0.97938100      -0.34962480      -0.63612697      -0.02866626
Cl       0.29862100       2.37567800      -2.64539300      -0.01456427      -0.14281554       0.02240254
6
Properties=species:S:1:pos:R:3:forces:R:3 charge=-1.0 dipole_moment="-2.256189371415782 0.0491129369124301 -0.4719043610645166" energy=-12.42881896290059 pbc="F F F"
C       -0.17126000      -0.82520700       0.23213700      -0.40926669       0.10361032      -0.19747925
H       -0.02690000      -1.67144500      -0.32963500       1.63768896      -0.98933075      -3.21858791
H       -0.92329500      -1.33378200       0.65759000      -2.08076103      -1.62457634       4.07615372
H        0.68294100      -0.50457000       0.74539000       1.08457830       0.71592527       0.71823155
Br      -1.38974600       0.43319100      -0.42047600      -0.48843765       1.79226473      -1.47780902
Cl       2.93740800      -0.39415600       0.72061800       0.25591529       0.00276496       0.09988377
6
Properties=species:S:1:pos:R:3:forces:R:3 charge=-1.0 dipole_moment="-1.7554728987676957 -1.668515324464582 -2.7488009659068724" energy=-11.756994564224524 pbc="F F F"
C        0.61144300      -1.49598700      -1.52772200       2.82316456       2.08097238       1.87846919
H        1.04172500      -2.45242700      -1.19653900      -0.46628193       0.60566608       1.47696827
H        1.42530100      -0.66692000      -1.43769200      -0.83651208      -2.33669278      -1.48673897
H        0.28415300      -1.82798300      -2.47092500      -1.16493968       1.06459980      -1.43234831
I       -0.47165700      -0.02150000      -0.21001000      -0.27127094      -1.38735606      -0.34932707
F        2.06422100       1.67364200       2.82244700      -0.08442012      -0.02780134      -0.08758052
6
Properties=species:S:1:pos:R:3:forces:R:3 charge=-1.0 dipole_moment="2.287913545189084 -0.06046378807902449 0.7221469721680515" energy=-13.46797909648432 pbc="F F F"
C        0.04026500      -0.54202900      -0.28559900      -1.12002816      -1.13721907      -0.97324901
H       -0.65106700       0.09716800      -0.83261700       0.02085988       0.59379838       0.70109412
H       -0.53417800      -1.16241100       0.41625100       0.33094368       0.22614859      -0.57260426
H        0.56425400      -1.08012300      -1.05483600      -0.31443000      -0.92299988      -0.16231067
Br       1.49744200       0.20761600       0.61285400       1.16553566       1.24724172       1.08389644
Cl      -3.06065100      -0.10994300      -1.07441800      -0.08249951      -0.00705871      -0.07638954
6
Properties=species:S:1:pos:R:3:forces:R:3 charge=-1.0 dipole_moment="1.6753856321893323 2.660210879909169 0.05231445903634134" energy=-13.499281547738455 pbc="F F F"
C        1.20776000       1.15724700       0.13264400      -3.48861084       2.61052660       5.70595197
H        2.08928000       0.74159000      -0.05574500       3.43543271      -1.46695279      -4.80519471
H        1.03234500       0.43529000       0.92324200      -2.10009727      -0.53434830      -0.20019125
H        1.52152100       1.92961900       0.78430700       0.86788725       1.22977416       0.73980465
F        0.07152700       1.81375600      -0.39005000       1.20529571      -1.87527588      -1.46873868
F       -1.39260600      -2.93042000       0.11808700       0.08028013       0.03615331       0.02823123
6
Properties=species:S:1:pos:R:3:forces:R:3 charge=-1.0 dipole_moment="-3.834510144580231 -0.2918121268793774 0.17570270922351217" energy=-12.451556661818017 pbc="F F F"
C       -2.62654000      -1.17406400      -1.15136100      -3.33718931       1.30836148       1.90222927
H       -1.99326400      -0.78897300      -1.86187700       0.94963342       0.62426132      -2.00310291
H       -3.72869300      -0.87349700      -1.20691300       1.77175246      -0.54085113      -0.69799800
H       -2.56899400      -2.22726500      -1.04272600       0.48621673      -0.73203581       0.69712742
I       -2.10256800       0.13550900       0.51080800       0.13294198      -0.65154587       0.11815300
Br       3.87103600       0.10720400      -0.45866100      -0.00350853      -0.00805321      -0.01610333
6
Properties=species:S:1:pos:R:3:forces:R:3 charge=-1.0 dipole_moment="-0.7921782842140702 0.2196773354213674 2.1273082617829586" energy=-13.422335504371658 pbc="F F F"
C       -0.72946500      -0.04099000       3.27744200       0.35197634      -2.12010457      -0.40772506
H       -1.12447200      -0.76959500       4.05426200       0.25902581       0.99656480      -1.14445775
H       -0.05754200       0.65294800       3.73254800       0.94476633      -0.18745915       0.19829223
H       -0.35828200      -0.56640900       2.35358800       0.44485950       0.21384175       1.60764305
Cl      -1.91361900       0.97224600       2.55581400      -2.00507289       1.11739483      -0.30901731
Br       1.09853200      -0.44569100      -2.09296800       0.00346276      -0.01983195       0.05492391
6
Properties=species:S:1:pos:R:3:forces:R:3 charge=-1.0 dipole_moment="-2.803866617260935 -0.4931984520176056 -0.8489642906796759" energy=-13.51450334156152 pbc="F F F"
C       -2.46995400      -0.56007300      -0.84494800      -6.54774047      -4.57870621       5.79669907
H       -1.70401700      -0.01456700      -0.60077100       3.79188740       4.83686813      -0.39879561
H       -2.16317100      -1.50678700      -1.29674000      -1.03060518       0.46521390      -0.56848278
H       -2.68581500      -0.78260600       0.42162000       1.00733258      -0.49632785      -3.39280947
F       -3.85302200      -0.06384800      -1.01007900       2.83707371      -0.21334656      -1.41609071
Cl       3.29705500       0.36700200       0.91978200      -0.05929170      -0.01332243      -0.02031017
6
Properties=species:S:1:pos:R:3:forces:R:3 charge=-1.0 dipole_moment="-0.7904584582797377 -3.248819982991435 3.126416002415913" energy=-14.81932281546626 pbc="F F F"
C        0.02041500      -1.76915400       1.63590800       3.37421731       3.68013387      -1.30461949
H        0.56869500      -0.83805100       2.08178300      -0.29482019      -1.88761872      -1.01694234
H        0.31041500      -2.02083200       0.62549600       1.25427061      -0.03063778      -0.05416903
H        0.16054400      -2.56767000       2.25063600      -0.06926861      -2.37502433       1.97779966
F       -1.21024200      -1.37924800       1.46840600      -4.27857361       0.61820792       0.39695882
F        1.08111500       3.16163500      -3.10989100       0.01244363      -0.00423152       0.00082224
6
Properties=species:S:1:pos:R:3:forces:R:3 charge=-1.0 dipole_moment="-1.7055222743309433 3.310649048273714 -1.7929582248324065" energy=-12.431497275484265 pbc="F F F"
C       -1.55065800       0.49096100       0.06821200      -0.30514523       3.55729273      -0.47590300
H       -1.46221400       1.08240600       1.09221000      -1.07648909      -1.40156295      -2.30950079
H       -0.93920300      -0.39441500       0.16833200      -0.78252508      -0.63121307      -0.36910348
H       -2.51654500       0.65920600      -0.67426000       2.39334241      -1.29273380       2.87966558
Br      -0.31413600       1.67569400      -1.06389600      -0.15668150      -0.29650221       0.30473694
Cl       1.48333500      -3.70248500       2.13181100      -0.07123602       0.06572614      -0.03024440
6
Properties=species:S:1:pos:R:3:forces:R:3 charge=-1.0 dipole_moment="-1.1943492600021153 0.9565401966379887 -0.06270644109739404" energy=-14.861221918532344 pbc="F F F"
C       -3.48370900       3.35408500      -0.52930700       1.79573520       1.96956493       1.71784825
H       -4.01930400       3.88662200       0.38196700       1.59780138      -1.15695537      -1.53085756
H       -2.40513700       2.91575900      -0.31360300      -3.00438106       0.04377509       0.11651212
H       -4.27629600       2.74672100      -0.95691600       0.63996357      -0.38045028      -0.46983109
F       -3.08361000       4.39895400      -1.41549900      -1.00263004      -0.49374338       0.16253950
I        1.11991500      -1.30687200       0.31705400      -0.02640266       0.01816125       0.00384277
6
Properties=species:S:1:pos:R:3:forces:R:3 charge=-1.0 dipole_moment="-2.5785905869518024 -0.08805508783782316 -0.9509367391553282" energy=-14.977495104297049 pbc="F F F"
C       -2.49734400      -0.06093900      -1.21394900       1.66479868       0.03501997      -3.99180611
H       -3.04712700       0.81202800      -1.52172200      -0.34173717       0.09347041      -0.83452050
H       -2.76267400      -0.99174200      -1.69783500      -1.14007711      -0.22524202      -0.05459018
H       -1.45590500      -0.00623700      -1.59898500      -0.18264501       0.66028814       0.86565553
F       -2.60497900      -0.12521400       0.06915900       0.01532943      -0.56233990       4.05928214
Cl       2.68791700       0.09873600       0.67528300      -0.01584674      -0.00138737      -0.04261604
6
Properties=species:S:1:pos:R:3:forces:R:3 charge=-1.0 dipole_moment="0.38318780171348865 -0.08838846948047839 0.5583242913216975" energy=-15.045145107409603 pbc="F F F"
C        1.08992000      -0.16126000       1.62121200      -5.00056565       2.01593632       0.13244833
H        0.93156000       0.05408000       0.60120600       0.95628744       1.22584963      -1.22856111
H        0.01730100       0.01876500       1.96616700       1.22716603      -0.67472591      -0.08916998
H        1.30621000      -1.13970700       1.63504400       1.17128722      -3.70421688       0.78953545
F        1.87005300       0.60596700       2.38086800       2.06363954       1.22300445       0.91917819
Br      -0.73214500      -0.09769400      -1.01021400      -0.41738366      -0.08509529      -0.52252482
6
Properties=species:S:1:pos:R:3:forces:R:3 charge=-1.0 dipole_moment="-0.6961125117627317 1.228652643499706 0.2957079295035484" energy=-12.956812967626137 pbc="F F F"
C       -1.39119900       2.57097200       0.78450900      -0.82174057      -6.37443062      -4.41577539
H       -1.72130800       1.69731300       1.40478700       0.31801257       1.30833834      -0.23423112
H       -0.51639600       2.99263200       0.98870800       3.68814183       1.28874499       1.54561621
H       -1.20752900       2.05719000      -0.33625700      -0.16826534       0.93109834       3.14950854
Cl      -2.48825600       3.76242900       0.46564800      -2.97675713       2.77818670      -0.06614318
I        1.02061900      -1.62517500      -0.27698700      -0.04003619       0.06894157       0.02079354
6
Properties=species:S:1:pos:R:3:forces:R:3 charge=-1.0 dipole_moment="1.429482274212421 -1.2916739450373855 -0.14177715825426432" energy=-15.221431408148506 pbc="F F F"
C        2.90565400      -2.53843000      -0.15726000      -0.51988687      -0.02711177       0.57703992
H        3.68414400      -3.20596200      -0.49563000       0.03181740      -0.64772213       0.16952107
H        2.76641400      -1.84550800      -0.99833200      -0.43213665       0.16404771       0.70335618
H        1.97871400      -3.03756000       0.20238600       0.61153333       0.17782779      -1.03689667
F        3.36892400      -1.90721000       0.99530300       0.29963587       0.36003983      -0.39024155
Br      -1.60524300       1.15670000      -0.19207400       0.00934030      -0.02717656      -0.02276352
6
Properties=species:S:1:pos:R:3:forces:R:3 charge=-1.0 dipole_moment="1.0061034633566086 0.5212924701264399 -1.0696523545732204" energy=-12.97645068581617 pbc="F F F"
C        0.19106600       0.09003000      -1.90776400       3.25422238      -4.17978102       1.54069872
H        0.10655600       0.53397600      -2.82664600       0.14479837       1.91714939      -1.84802219
H       -0.69131100      -0.07749700      -1.38576900      -1.62283467      -0.04777367       1.02036396
H        0.67003000      -0.97478100      -2.09792700      -1.13816163       2.13861600       0.33013070
Br       1.45765900       0.81142700      -0.55165600      -0.46042753       0.25733968      -1.04529544
Br      -1.49285000      -0.81205200       1.05899700      -0.17668314      -0.08654900       0.00264824
6
Properties=species:S:1:pos:R:3:forces:R:3 charge=-1.0 dipole_moment="4.131676486476093 1.6672892208677057 2.300756146912258" energy=-12.230216477357258 pbc="F F F"
C        1.19403400       0.68373200      -1.25138100      -1.96008424       0.26980901       3.45741667
H        2.01028000       0.07040200      -1.44032700       0.61829431      -1.63780312      -0.95332244
H        1.54741100       1.66674300      -1.12584900      -0.19726790       1.36825327      -0.59973248
H        0.10603000       0.50338000      -1.41185000       1.41856051      -0.05289942      -0.54977954
I        1.15242500       0.40549500       1.13445100       0.05983472       0.01761566      -1.35184706
Cl      -4.22979200      -1.63730400      -2.86115300       0.06059576       0.03497626      -0.00213350
6
Properties=species:S:1:pos:R:3:forces:R:3 charge=-1.0 dipole_moment="0.19274909470740517 -0.9600052490127609 -1.267172511011069" energy=-12.587918032246812 pbc="F F F"
C       -0.08689900      -0.15396400       0.31597900      -2.97422202      -0.84514995       0.24124200
H        0.13554300      -1.03801100       0.86392400       0.18361586      -0.30410959       0.88475575
H       -1.21369100       0.11015100       0.53332700       2.63323510      -0.38865107      -1.14666067
H        0.59381700       0.62099700       0.54118600       0.40928674       0.58931077      -0.53526052
I        0.26668100      -1.01096900      -1.62785000      -0.01003553      -0.08603735      -1.04918449
Br      -0.37509600       1.56605700       2.35547800      -0.24196397       1.03434460       1.60439060
6
Properties=species:S:1:pos:R:3:forces:R:3 charge=-1.0 dipole_moment="0.2697586666291293 -0.9973402887496714 3.118547137294829" energy=-13.364760761718586 pbc="F F F"
C        0.58014900      -0.46541700       1.65752100      -5.52913411      -9.70674769       5.99676536
H        0.71638600      -1.59064900       1.44244200       1.77769943       1.34562962       1.77461153
H        0.91446000       0.06471100       2.45120000       0.67345322       0.76655595       3.28190596
H        0.97735900      -0.13388900       0.94594700       4.96353097       5.82902812     -11.31164480
F       -0.77407700      -0.60111700       1.55639000      -1.94146637       1.77904206       0.19997425
F        0.09751100       1.09582000      -3.19913600       0.05543350      -0.01360165       0.05855842
6
Properties=species:S:1:pos:R:3:forces:R:3 charge=-1.0 dipole_moment="0.6908588404162538 -0.6644264387485899 1.7660659681687625" energy=-14.643629856107589 pbc="F F F"
C        2.01991200      -1.85063100       4.85995900       1.64384779       0.51752454       1.29724865
H        2.47934300      -1.03478400       5.62238800      -0.15379106      -1.17517318      -2.78594064
H        2.68006300      -2.74253400       4.70635300      -0.53164864       0.88580630       0.79641109
H        1.15777100      -2.01566100       5.43968400      -1.31473370      -1.20553843       0.43903955
F        1.61036800      -1.51035700       3.59681000       0.37065334       0.96645153       0.27971650
I       -0.62132000       0.57528300      -1.45848100      -0.01383459       0.01159722      -0.02619646
6
Properties=species:S:1:pos:R:3:forces:R:3 charge=-1.0 dipole_moment="1.0176659854074286 0.7266661455462666 1.8624603596678615" energy=-14.138175084343073 pbc="F F F"
C        0.82482700       0.48016900       1.98923000      -0.83285751       1.24516324      -4.52060493
H       -0.09662300       1.03089800       2.29956100       0.33189293      -0.75658059      -0.75896143
H        1.17194800       0.00689300       2.87993300       0.68673759      -1.13578799      -0.02240408
H        0.90887400       0.15618700       0.79830000      -2.10129129      -1.78501679       3.70018128
F        1.72186600       1.45539600       1.56352800       1.85076915       2.40383406       1.51644447
Cl      -1.31940900      -1.01020900      -1.88146600       0.06446219       0.02869146       0.08540074
6
Properties=species:S:1:pos:R:3:forces:R:3 charge=-1.0 dipole_moment="2.4115293415767973 -2.7771008339506156 -0.306525899219105" energy=-13.29777932276074 pbc="F F F"
C        0.97473600      -1.09901400      -1.07072900       1.53584242      -1.38768156       0.69248298
H        1.06424600      -2.14671000      -1.45674700       0.49975461       1.06795509       0.67274565
H        1.74847700      -0.38524300      -1.21852700       1.05582668      -0.22405315      -1.07340943
H        0.13848900      -0.68957500      -1.45429800      -2.90204241       1.26020471      -1.49060231
Cl       0.78393300      -0.93166300       0.65967600      -0.21007200      -0.69081742       1.25403664
F       -2.45850000       2.85043200      -0.07339300       0.01918660      -0.02569818      -0.05383993
6
Properties=species:S:1:pos:R:3:forces:R:3 charge=-1.0 dipole_moment="-1.6084552985972178 0.5642828267126464 -0.8019945214700295" energy=-12.951059412035544 pbc="F F F"
C       -2.58427700       1.11386400      -0.70562800       0.66661819       2.62175152       0.26021057
H       -1.77222000       1.92863000      -0.62713700      -1.78551661      -0.73717441      -0.59087812
H       -2.24697500       0.55449500       0.11618700       0.21448144      -1.70990663       0.68662292
H       -3.66598500       1.52122100      -0.37138100       2.29289146      -1.10362915      -1.99969260
Cl      -2.12261100       0.23239400      -2.30153200      -1.29930399       0.87793204       1.63582646
Br       1.69357800      -0.41823500       1.26406100      -0.08866604       0.05069342       0.00736158
6
Properties=species:S:1:pos:R:3:forces:R:3 charge=-1.0 dipole_moment="-0.9772643637353005 -0.32449358222658964 -0.18163372739951167" energy=-13.886271279498656 pbc="F F F"
C       -3.05931300      -1.01021500      -0.80911400      -0.63778636      -6.11453989       2.54840308
H       -3.96466400      -0.67763200      -0.32402000       0.02288796       0.80970370       0.21596085
H       -2.42930900      -1.65316400      -0.05257200      -1.14828715       1.60039922      -1.10061016
H       -3.59547000      -2.08114100      -1.39692800       1.99790157       3.52107976      -0.09323386
F       -2.27710600      -0.04553700      -1.26147600      -0.29937413       0.22721303      -1.64850097
I        0.92149600       0.20534100       0.33927300       0.06596423      -0.04190436       0.07714904
6
Properties=species:S:1:pos:R:3:forces:R:3 charge=-1.0 dipole_moment="-2.6791977582241993 0.3640739208679227 -0.40342353824544996" energy=-13.74683597669527 pbc="F F F"
C       -2.53051600       0.23752100      -0.63222400      -5.66565713      -3.27422813       6.56347305
H       -3.46984400       0.36544600      -0.98234700      -1.74408019       0.60873854      -4.08144197
H       -2.64608200      -0.86129800      -0.24405800       0.51676503       1.74941523      -0.18387863
H       -1.59063600       0.36429600      -0.72897400       6.27445635       1.39260831      -2.74796853
F       -2.85448000       1.13801100       0.47457000       0.69390480      -0.47703995       0.48742669
Cl       2.85764600      -0.67856900       0.08691700      -0.07578944       0.00172778      -0.03643665
6
Properties=species:S:1:pos:R:3:forces:R:3 charge=-1.0 dipole_moment="2.6123309258973526 -1.8036634798021132 0.8244263434258308" energy=-11.629804631843683 pbc="F F F"
C        0.57467100      -1.60699300       1.14085900      -1.60808117       1.20024041       8.77013741
H        1.23152200      -1.48178000       2.26949200      -1.41174554      -0.38357931      -3.14643144
H        0.57283900      -2.69221200       1.11641300      -0.41124541       0.21316298      -1.22226191
H       -0.40211300      -1.02203500       1.60625400       1.85165567      -2.43100650      -1.65746898
Br       1.26057200      -0.43097400      -0.00564200       1.54568614       1.44966366      -2.79886712
Cl      -2.88060500       1.76012100      -0.68469700       0.03353027      -0.04824933       0.05496350
6
Properties=species:S:1:pos:R:3:forces:R:3 charge=-1.0 dipole_moment="0.7281055075590004 -0.2508141224909438 1.443516053836574" energy=-15.42152009905871 pbc="F F F"
C        1.53006600      -0.47452800       3.03633500      -0.30132663      -1.14827070      -1.45804700
H        1.89273000      -1.52232300       3.04797600      -0.15423483       0.57386667      -0.10294595
H        1.89128700       0.03758700       2.12869700      -0.20255512      -0.22808875       0.42325761
H        0.43887800      -0.48631400       3.04505800       0.10987507       0.08434556      -0.08550924
F        1.98442500       0.15232700       4.14340600       0.51655523       0.73223995       1.16620003
Br      -0.89323200       0.09849400      -1.82086800       0.03242161      -0.01339699       0.05843449
6
Properties=species:S:1:pos:R:3:forces:R:3 charge=-1.0 dipole_moment="-0.14753513548240946 -0.3166892767251941 1.144043028479864" energy=-13.202209242856972 pbc="F F F"
C       -0.57994200      -0.95410100       1.10736500      -1.09587418       1.92127755       0.10831647
H       -0.08485800      -1.85056800       0.95437100       1.37052407      -1.44029765      -0.15367433
H       -0.41400400      -0.23318600       0.29439100      -0.13114633      -0.67986760       0.45686553
H       -1.63563400      -1.18166400       1.21323600      -0.10705972       0.33562618       0.38589896
Br       0.12863300      -0.01435500       2.67918000      -0.18757279      -0.38596067       0.16571584
I        0.02098100       0.17910300      -1.94108500       0.15085178       0.24890337      -0.96359554
6
Properties=species:S:1:pos:R:3:forces:R:3 charge=-1.0 dipole_moment="1.8117493075795286 0.2235138701979552 -0.4540975479290434" energy=-12.909265450776855 pbc="F F F"
C        2.90115700       0.04009200      -1.15531100      -3.91795168       2.44857382      -0.72124591
H        2.87461200      -1.01952500      -1.08696900      -0.68442514      -0.64575832       0.12041351
H        3.84757500       0.37866000      -1.04839900       3.00240903       0.99663371       0.35247153
H        2.46583800       0.52670200      -2.14908000       0.54687574      -1.42128331       2.45296835
Cl       2.01719100       0.89412600       0.38899500       1.09886283      -1.33189479      -2.16182638
Br      -1.73963500      -0.43790100       0.13152600      -0.04671643      -0.04580009      -0.04174392
6
Properties=species:S:1:pos:R:3:forces:R:3 charge=-1.0 dipole_moment="1.4867286648512172 0.6912800654758626 2.9984503693573648" energy=-13.736974488714921 pbc="F F F"
C        0.80350000       0.20917500       1.15782200       2.98615348       5.59827262      -3.49647688
H        0.28376100       0.67660600       0.14353000      -0.60554729      -0.18713004       3.59595081
H        0.59176900      -0.77880600       1.00925300       0.26244692      -2.71967045       0.37829209
H        1.87465300       0.71587700       0.65294000      -2.23508534      -2.40234384       2.37847526
F        0.67795400       0.61556500       2.54721100      -0.47161440      -0.31961129      -2.94933940
F       -1.51919600      -0.82320100      -3.51972800       0.06368212       0.03101111       0.09392292
6
Properties=species:S:1:pos:R:3:forces:R:3 charge=-1.0 dipole_moment="-0.6082304648727628 -3.715311390369094 0.8499416809875875" energy=-11.824855499336486 pbc="F F F"
C       -1.22806500       0.11409200       1.16918400       4.81657133       0.06037825       0.70959933
H       -2.18522400      -0.05949500       1.62663700       0.43611364      -0.86936512       0.93540288
H       -1.39231100       0.57937500       0.29095000      -0.82567436       2.10654817      -2.68139083
H       -0.22175700       0.64654700       1.56312800      -3.34532942      -1.04047873       0.15118139
I        0.07723500      -1.40585600       0.03774200      -1.02251649      -0.15105952       0.81659682
Cl       0.41613100       4.27408300      -0.73506700      -0.05892815      -0.10605287       0.06865977
6
Properties=species:S:1:pos:R:3:forces:R:3 charge=-1.0 dipole_moment="2.2143843717812386 0.966028873200609 -1.448712574044311" energy=-13.49418255783714 pbc="F F F"
C        1.19837500       0.41981800      -1.75108700      -0.68855536       0.02781420      -2.72256962
H        0.35613200      -0.31014800      -1.59106500       1.31277555       0.40449009      -0.05393404
H        2.00746300       0.10160700      -2.54542500      -1.60924588       0.20936340       1.91614923
H        0.69201100       1.30793600      -2.22347100       0.61224861      -0.69103288       0.66630041
Cl       1.90867600       0.89235900      -0.22778100       0.33004585       0.04399261       0.29328113
Cl      -2.51137300      -1.10520000       1.21992700       0.04274099       0.00577110      -0.09786596
6
Properties=species:S:1:pos:R:3:forces:R:3 charge=-1.0 dipole_moment="-1.4884998209749747 0.9986531774090804 -0.8886303560291204" energy=-12.658402585481443 pbc="F F F"
C       -2.67813000       0.81491600      -0.69685900      -3.92521556      -3.01179047       2.30693637
H       -3.16462100       1.31559100       0.16461000       0.74219064      -0.07627487      -0.49413521
H       -2.18421600      -0.06928900      -0.37567100       0.81649295      -0.44791603       1.09471719
H       -3.53134900       0.26726900      -1.18320900       0.63299073       1.40195992      -0.79815173
Br      -1.46410300       1.77458800      -1.57206000       1.81213318       2.13518975      -2.09587398
I        1.43759500      -1.29271000       1.14335000      -0.07935299      -0.00019746      -0.01349675
6
Properties=species:S:1:pos:R:3:forces:R:3 charge=-1.0 dipole_moment="-0.0003085103137587195 -1.6375362322037537 1.0356834110727062" energy=-12.66309081444397 pbc="F F F"
C       -1.03376200      -2.57704700       1.37409600       2.32709588       2.13234971      -1.91795209
H       -0.81573100      -3.50695600       1.73511900      -0.05370521      -2.12194600       1.52434033
H       -1.22273800      -2.65424900       0.32642200       0.09798835       0.12181425      -0.71621221
H       -1.77175900      -1.93550300       1.77924400      -0.12470160       0.50946619       1.03393219
Br       0.94988000      -1.76015400       1.43556700      -2.17999277      -0.61703858       0.08308726
I       -0.43835800       1.60687500      -1.17604200      -0.06649490      -0.02419151      -0.00695843
6
Properties=species:S:1:pos:R:3:forces:R:3 charge=-1.0 dipole_moment="0.6647677580494036 -0.7915744930168169 3.890997695099079" energy=-11.727379680773694 pbc="F F F"
C       -1.15444500       0.91459700      -0.27636500       1.63000342       0.25933691       0.04091191
H       -1.30496800       1.78908400       0.48455300       0.71537351      -1.49680073      -2.34225819
H       -2.01609400       0.60032600      -0.86193200      -0.51140788      -0.85802604       1.18175469
H       -0.37355200       0.70778300      -1.05592300      -0.86438592       2.75835475       0.09321432
I        0.36742100      -0.35162300       0.81258400      -0.94606062      -0.62742995       0.74315737
F       -0.98356000       1.11680400      -4.44171700      -0.02360324      -0.03535936       0.28313864
6
Properties=species:S:1:pos:R:3:forces:R:3 charge=-1.0 dipole_moment="0.38579135358946276 -1.2706179838290503 2.3598075610162876" energy=-15.337519760916573 pbc="F F F"
C        0.27832300      -1.36099800       2.08265500       1.33153175       0.27859448      -2.09928018
H        0.63054600      -2.38483300       1.94592600       0.17469002       0.00196689       0.49411721
H        0.71065200      -0.75787600       1.26557700      -0.68762925      -0.43854796      -0.06942185
H       -0.77965300      -1.36476700       2.05466800      -1.06425835       0.23354103       0.06377108
F        0.74884900      -0.76469700       3.20410000       0.23335848      -0.03336829       1.55683908
Cl      -0.52771300       1.15033800      -2.74111800       0.01325250      -0.04216404       0.05486066
6
Properties=species:S:1:pos:R:3:forces:R:3 charge=-1.0 dipole_moment="1.3917254802386911 2.7487686860970277 0.8534622969694687" energy=-11.835712720868159 pbc="F F F"
C        2.34337800       2.27922700       0.85559800       3.22137910      -1.84364257       1.83513273
H        2.51638900       1.22865300       0.30682400       0.92415842       3.12767987       0.35097361
H        2.69094100       1.87965800       1.98005800      -1.24889957       1.71779889      -2.66126012
H        2.85256400       3.38386600       0.61926400      -1.09686612      -3.62469523       0.20953001
Br       0.49970100       2.31118300       0.61484500      -1.82338382       0.62075125       0.26257804
Br      -1.13170600      -2.88739800      -0.84455200       0.02261080       0.00175658       0.00297220
6
Properties=species:S:1:pos:R:3:forces:R:3 charge=-1.0 dipole_moment="0.9889533591394452 -1.06621693612224 -0.3266505085368479" energy=-13.250518096742763 pbc="F F F"
C        0.54929400      -1.98223500      -0.57967800      -0.42998875       1.12183410       2.26731258
H        0.41722900      -2.68678000       0.24031700       0.21507691      -0.01468357      -0.17211686
H        0.19480700      -2.39058000      -1.48107200       0.39677061      -0.35563296      -1.41837436
H       -0.00026600      -1.07961000      -0.32158700      -0.60147518      -0.21776474      -0.15462924
Br       2.32965000      -1.23397700      -0.44486200       0.44450829      -0.50901419      -0.51787987
I       -1.61217500       1.15546400       0.38887900      -0.02580925      -0.02496130      -0.00445212
6
Properties=species:S:1:pos:R:3:forces:R:3 charge=-1.0 dipole_moment="-3.072910894655803 -1.0483423883038143 1.3505607850289296" energy=-13.29525925684834 pbc="F F F"
C       -1.28100800      -0.68184800       0.92487700       8.44096779      -9.64350729       1.46456989
H       -1.25232600      -1.18028200       1.95814900      -1.38854956       2.51047417      -0.30524499
H       -0.06232300      -0.72932900       0.66856200      -3.04410461       2.34132385       0.22723000
H       -1.33948400      -1.71609800       0.46695000      -0.06245673       0.08020557       0.06829416
F       -2.17912600      -0.06258500       0.32523400      -3.89042287       4.76188962      -1.50054374
F        3.32803400       0.92000700      -1.28555900      -0.05407030      -0.05154445       0.04670769
6
Properties=species:S:1:pos:R:3:forces:R:3 charge=-1.0 dipole_moment="-2.945188683114114 0.719474627254704 0.4399685164069888" energy=-11.928326491161872 pbc="F F F"
C       -0.56040900      -0.65842900       0.69925100       8.09462320       5.77197894      -7.04691607
H       -0.23325500      -0.97622200      -0.31927400       0.30779604      -1.77861422       1.98853299
H       -0.86987500      -1.10735100       1.44250900      -3.91094851      -5.26720141       6.41996537
H        0.37653200      -0.07548500       1.11757500      -1.49518608      -1.44612737      -0.98725175
Br      -1.56542100       0.68630000      -0.02470700      -2.83607767       2.70532318      -0.42605291
Cl       3.46345900      -1.05358100      -0.32774000      -0.16038954       0.01529189       0.05090373
6
Properties=species:S:1:pos:R:3:forces:R:3 charge=-1.0 dipole_moment="-2.36268152244686 -1.0324411423035817 0.7094525400638354" energy=-11.64574529242172 pbc="F F F"
C       -2.32730300      -2.13598900       1.29214700       3.65587551       1.47434111      -5.59883929
H       -1.85161900      -3.11087400       0.78977200      -0.65947310       3.04585810      -0.59139748
H       -2.89766800      -2.64061100       1.84508300      -5.46494549      -2.84594968       4.99680362
H       -1.62106100      -1.56913200       1.80844400       1.12570464       0.71770910       0.57370263
Br      -3.48728900      -0.53420900       0.40904900       1.34468500      -2.36583315       0.59538423
I        2.68659000       0.73271500      -0.50024400      -0.00120328      -0.02676673       0.02439874
6
Properties=species:S:1:pos:R:3:forces:R:3 charge=-1.0 dipole_moment="0.4336549031077517 -1.1988922463548062 0.8587926990114781" energy=-11.499490188848775 pbc="F F F"
C        0.77872000      -1.03534500       0.89837900      -1.54910880      -1.08259238       4.06118887
H        1.51616700      -0.56653700       0.36668800       1.87416208      -0.38466997      -2.97414592
H        1.08346900      -0.63342800       1.88916500      -1.55226663      -0.61355885      -0.17005380
H       -0.24948300      -1.16955700       0.60026500       0.33047728       0.56897283      -0.04653646
Br       0.51258100      -3.36372800       1.84922600       0.78828538       1.71762405      -1.03701134
I       -0.47099600       2.38324700      -1.37677900       0.10848976      -0.20650279       0.16709395
6
Properties=species:S:1:pos:R:3:forces:R:3 charge=-1.0 dipole_moment="-0.4372644208610076 2.8427823093258 0.5362258510085515" energy=-12.063225813858475 pbc="F F F"
C        0.43766500       1.50854000       0.86205000      -1.65887588       3.63968836       0.63526822
H        0.91682400       0.99112800      -0.03702300      -1.45835810       0.01257064       1.79157104
H       -0.40084200       1.29152900       1.68392600       2.83067218      -0.99823345      -2.07832929
H        1.05666800       2.40761800       1.19724300      -0.24340327      -2.06963947       0.01242203
Br      -0.96922600       2.98660500       0.13572600       0.51171590      -0.69567783      -0.38550867
Br       0.84926500      -3.37921900      -0.36476700       0.01870735       0.11091894       0.02488211
6
Properties=species:S:1:pos:R:3:forces:R:3 charge=-1.0 dipole_moment="0.8745785843798082 1.3720766012332448 -0.6569825029275885" energy=-13.36578931205394 pbc="F F F"
C        2.01698500       4.32089100      -2.14584300      -6.68784503      -4.59076932       5.76731393
H        2.78292200       4.86639700      -1.90166500       3.74040671       4.87228868      -0.41945957
H        2.32376800       3.37417700      -2.59763500      -1.06929823       0.43256911      -0.52059958
H        1.80112300       4.09835800      -0.87927500       0.97407639      -0.53527184      -3.43727054
F        0.63391700       4.81711600      -2.31097300       3.02293157      -0.17667285      -1.38960834
I       -0.46632000      -1.53996800       0.73683800       0.01830009      -0.00173961      -0.00020055
6
Properties=species:S:1:pos:R:3:forces:R:3 charge=-1.0 dipole_moment="0.24887786307749066 -0.1567094807819548 0.44108560949848913" energy=-14.608115900499396 pbc="F F F"
C        1.43741600      -0.19478600       1.64609500       2.16613915       1.77259270       4.41963256
H        0.61092800       0.51468100       1.74967300      -0.28300906      -1.44211439      -0.35231932
H        1.80402900      -0.56565800       2.66780300      -1.63611905      -0.69058242      -1.06023458
H        1.49726800      -0.91574100       0.88070900      -0.44433037      -0.40795800      -0.68405645
F        2.50717700       0.71702700       1.54454400       1.20445136       0.75946125      -1.26587040
I       -0.66228900      -0.08146800      -0.54859700      -1.00672426       0.00802698      -1.05668903
6
Properties=species:S:1:pos:R:3:forces:R:3 charge=-1.0 dipole_moment="0.9516722954780119 -0.31182296309684904 -0.4030742812864778" energy=-12.878526551748037 pbc="F F F"
C        1.35878900      -0.32324000      -0.39319500      -1.48506878       2.16884704      -4.18057292
H        1.09645100       0.50712000      -1.19147400       0.30953822      -0.25889982       3.57488936
H        1.76496000      -0.43224900       0.53793800       0.97005313       1.86910729       2.55683270
H        0.44645900      -0.81362300      -0.29321100      -1.45736977      -1.61561758      -0.55804616
Cl       2.59014700      -0.99353300      -1.40974900       1.76551342      -2.17430240      -1.46496635
Br      -1.58551700       0.55909300       0.77919000      -0.10161000       0.01050759       0.07112957
6
Properties=species:S:1:pos:R:3:forces:R:3 charge=-1.0 dipole_moment="-0.8628551924569768 -1.029249674546671 1.3337805756819503" energy=-13.886495430484322 pbc="F F F"
C       -0.99747700      -1.06169300       0.30816600      -0.14427129      -0.06297969       0.22234439
H       -1.20067800      -2.08266500       0.49432700      -0.79682967      -1.01274167       0.16905467
H       -0.24659300      -1.04169500      -0.42881500       0.69931543       0.72435952      -1.13249595
H       -1.86615000      -0.47114600       0.06413200      -0.02507391      -0.00943698      -0.20794775
Cl      -0.29112300      -0.46210700       1.79144600       0.32611361       0.47469201       0.96096273
Cl       0.83808100       1.04832300      -1.90783700      -0.05859545      -0.11375538      -0.01022116
6
Properties=species:S:1:pos:R:3:forces:R:3 charge=-1.0 dipole_moment="-1.0240954885157791 1.3739504177358515 0.058463498223093165" energy=-14.962629208325941 pbc="F F F"
C       -1.31291200       1.27168300       0.07316600       0.95623088       2.46839035      -1.22007133
H       -2.15644400       2.00095300       0.13346500      -0.18761855      -1.31671396      -0.59424986
H       -1.07846700       0.98121900       1.05541000      -0.58623985      -2.17918236       0.85395341
H       -1.15597000       0.63610100      -0.84051000      -0.95448098      -0.05222682       1.64984823
F       -0.24080800       2.18255000      -0.03378900       0.88606392       1.03337529      -0.67181748
Cl       0.84915400      -1.81713700      -0.02842700      -0.11409785       0.04592093      -0.01773804
6
Properties=species:S:1:pos:R:3:forces:R:3 charge=-1.0 dipole_moment="0.8441508947723873 -2.6415970715275856 -0.422497201623013" energy=-12.600992049447491 pbc="F F F"
C        0.19213700      -3.81007200      -0.05986600       3.05835007      -1.00724671      -0.23357857
H       -0.57472200      -3.08311900       0.01478000      -0.47561555       0.38029961       0.41719032
H        0.63401200      -4.34098700       0.80556400      -0.30961381       1.60524010       0.28339627
H       -0.01305100      -4.71271500      -0.60808100      -0.43195153       0.38907941      -1.38248279
Br       1.83405200      -2.75903800      -0.96560600      -1.81864682      -1.34834728       0.90672942
I       -1.23379000       2.48233200       0.64043700      -0.02313376      -0.01963860       0.00923952
6
Properties=species:S:1:pos:R:3:forces:R:3 charge=-1.0 dipole_moment="-1.002777584588215 2.680047616824365 -1.7738316437337869" energy=-11.721375473073426 pbc="F F F"
C       -0.84677900       1.43081300       0.96615300       3.06846890      -2.46306662       3.47672052
H        0.09321100       2.20461400       1.31686800      -3.32897978      -2.37367964      -0.61773689
H       -1.12846800       0.42104200       1.70131200       1.15778944       3.66878142      -1.29695195
H       -1.75993000       1.84340600       0.67908600      -1.06631061       1.11543205      -0.57962131
I       -0.01551800       0.22768900      -0.54988700       0.26607114      -0.09272787      -0.95393437
F        0.96648000      -2.79127400       2.18331200      -0.09686015       0.14510690      -0.02861227
6
Properties=species:S:1:pos:R:3:forces:R:3 charge=-1.0 dipole_moment="-1.4452676304035403 1.3016277683680912 1.0886815670650962" energy=-14.10732055338873 pbc="F F F"
C       -0.43369600       1.01743700       0.62025500       6.49653386      -4.24765969      -4.63090681
H        0.18524600       0.37292800       1.23911600       1.38985208       1.25402275       0.49392747
H       -0.41382600       2.03151800       0.79441400      -0.78162108       2.25004865       0.49688783
H       -0.12538700       0.58851900      -0.48011100       1.33448749       2.59971922       2.08914643
F       -1.48012100       0.29563200       0.61210000      -8.28573846      -2.01267976       1.46961594
F        1.80858100      -1.30647500      -1.19820600      -0.15417056       0.15602484       0.08110803
6
Properties=species:S:1:pos:R:3:forces:R:3 charge=-1.0 dipole_moment="3.983878879097244 0.46893567691325344 -1.5488911117761517" energy=-13.296933669513326 pbc="F F F"
C        2.03098000       0.31455600      -1.17361000      -2.16828756       0.11756524     -10.91182177
H        1.69344700       1.29850900      -1.84882900      -1.40594565      -1.40849670       3.18389601
H        1.56228400      -0.58134700      -1.82292200       0.60135742       1.93380962       1.58256862
H        2.89275400       0.50881000      -1.80453200       2.57368680      -1.18768211       1.96753581
F        1.91209500       0.07816700       0.05452000       0.41193755       0.54649059       4.18205079
F       -3.94924700      -0.42409000       1.33636200      -0.01294499      -0.00154575      -0.00446292
6
Properties=species:S:1:pos:R:3:forces:R:3 charge=-1.0 dipole_moment="0.36287004271389 2.872053217550928 -0.27833874592121144" energy=-13.26069496095086 pbc="F F F"
C       -0.55071700      -0.39452400      -1.46103700      -0.80945687      -0.87598777      -0.31132051
H        0.27025400      -0.84657900      -2.04063200      -0.25431452       0.53939177       0.47043375
H       -1.25269100       0.18477300      -2.10650900       0.88365480       0.00844607       0.72597314
H       -1.10258700      -1.22325900      -0.99641700       0.37738347      -0.04279036      -0.04635134
I        0.19374300       0.68014700       0.25302800      -0.10765673       0.02016516      -0.62860340
F       -0.54212000      -3.53284200       0.05547700      -0.08936744       0.35122197      -0.20977375
6
Properties=species:S:1:pos:R:3:forces:R:3 charge=-1.0 dipole_moment="0.5937828686699489 -0.519511259635682 -1.5305159623165328" energy=-12.342688945627769 pbc="F F F"
C        0.90739800       0.00006600      -0.41890800      -0.27140721       0.43943602       4.37673165
H        1.25818200       1.09781200      -0.03137600      -1.06114732      -2.47093677      -2.02847096
H        1.57022700      -0.70627300       0.14200500      -0.06540013       0.55846576      -0.91483663
H       -0.05981100      -0.24452500       0.15511200       1.30571890       1.00964812      -1.17452732
I        0.58362900      -0.77530700      -2.32931200       0.29314229       0.31431276      -0.80423136
I       -0.73859100       0.77252600       2.37172200      -0.20087311       0.14909160       0.54496592
6
Properties=species:S:1:pos:R:3:forces:R:3 charge=-1.0 dipole_moment="0.8037884322138409 0.17283986051436181 2.9790613163623054" energy=-13.294390489175512 pbc="F F F"
C        0.24721600      -0.42327800       1.55169000      -0.89908450       2.14041218      -0.34028399
H        0.74230100      -1.31974500       1.39869700       1.31117221      -1.44848455      -0.15122921
H        0.41315400       0.29763700       0.73871600      -0.20359488      -0.65230332       0.19351821
H       -0.80847600      -0.65084100       1.65756200      -0.00470666       0.38993251       0.27816202
Br       0.95579100       0.51646800       3.12350600      -0.22742643      -0.42610536      -0.07664099
Br      -1.00808500      -0.39610700      -3.49793800       0.02342327      -0.00370805       0.09603945
6
Properties=species:S:1:pos:R:3:forces:R:3 charge=-1.0 dipole_moment="-1.6912186143294023 1.3165981916549425 -3.50063954218245" energy=-11.992950999925409 pbc="F F F"
C        0.80222700       0.81290100      -1.31868900      -3.44099607       0.12388553      -0.18188345
H        0.66752400       0.05969600      -1.95735200       1.68457252      -3.30233749      -2.46139746
H        1.26169300       0.57073400      -0.42519900       0.56188841       0.17071406       1.88046488
H        0.83791500       1.65947500      -1.91154200       0.61035577       2.11436844      -0.07763549
Br      -1.32429400       0.42649500      -1.40046800       0.57355351       0.84693790       0.93322876
Cl       2.28057600      -1.29968500       3.60133000       0.01097193       0.04661770      -0.09275204
6
Properties=species:S:1:pos:R:3:forces:R:3 charge=-1.0 dipole_moment="1.068456414077346 -1.4131254066338927 -1.6170650118130916" energy=-13.33716379671877 pbc="F F F"
C        1.14295400      -1.63844900      -1.69966800       0.20706124      -2.59758880      -3.41539970
H        0.26928700      -2.48820400      -2.15671200       1.94141803       3.45317744       0.25428161
H        1.27296300      -2.28117100      -0.86483900       0.63367362       0.86943763       1.82588859
H        2.26849400      -1.85902300      -2.40916700      -3.71904290       1.42748635       1.99539166
F        0.74556700      -0.29631200      -1.47536400       0.95002629      -3.12626679      -0.70312272
Cl      -1.02226900       1.12505300       1.70041200      -0.01329929      -0.02614555       0.04250240
6
Properties=species:S:1:pos:R:3:forces:R:3 charge=-1.0 dipole_moment="1.7478363424420489 -3.6024093157864567 -0.3628912098023125" energy=-12.355414448971807 pbc="F F F"
C        0.55255900       0.05741100       1.51826200       3.88416995      -2.20897630       1.62700860
H        0.77979600       1.05033200       1.56351400      -0.71551955       3.17235690      -0.73902869
H        1.68191500      -0.24290100       1.76073800      -2.45982137      -0.37852401      -0.29990944
H       -0.06735000      -0.19266500       2.37226200      -0.39804999      -0.45606283      -0.56421166
I        0.19171700      -0.68650500      -0.39201700      -0.40809015      -0.03388046      -0.08748025
F       -1.76341500       3.93616800       0.66342600       0.09743299      -0.09582245       0.06229629
6
Properties=species:S:1:pos:R:3:forces:R:3 charge=-1.0 dipole_moment="0.7324939741662062 -1.3002561410383098 3.0844945837950455" energy=-11.99555869337154 pbc="F F F"
C       -0.91134100       1.04853800       1.49796700      -2.64972667      -0.25355707      -0.26160308
H       -1.73798600       0.97008700       2.35677800       1.74166284      -1.48468466      -1.95318032
H       -1.43183000       1.48259200       0.62925300       0.38062306      -0.07293912       0.40879515
H       -0.29586000       1.76232400       1.94960900       1.69774582       0.84826922       0.06453829
I        0.32670200      -0.47868200       0.29110500      -1.15637482       0.97760034       1.57938457
F       -0.93127400       1.65154800      -3.26133400      -0.01375129      -0.01532429       0.16244385
6
Properties=species:S:1:pos:R:3:forces:R:3 charge=-1.0 dipole_moment="-0.3328752200647103 5.517881060876972 -1.9181006974725965" energy=-12.689960114360625 pbc="F F F"
C       -0.55716700      -0.02544700      -1.76855100       0.18016133       0.85617896      -1.10225103
H        0.01776700      -0.97225500      -1.83372300      -0.78030981       0.65509040       0.15326450
H       -0.39274200       0.61698700      -2.70922100      -0.02206572      -0.88970512       1.72304342
H       -1.63505800      -0.09145700      -1.58790500       0.47134752      -0.60947028      -0.31425156
I        0.06289800       0.99483600       0.03567200       0.15595953      -0.01379140      -0.43705055
F        0.22438200      -5.79187600       1.65017000      -0.00516175       0.00233662      -0.02235574
6
Properties=species:S:1:pos:R:3:forces:R:3 charge=-1.0 dipole_moment="-1.3791522297156942 0.4290198399204229 0.42528384881384224" energy=-14.879142995254243 pbc="F F F"
C       -2.85901500       0.94635900       0.95434500      -3.55246059      -1.05985765      -0.40326111
H       -3.61117200       1.27199400       0.22666800       0.23744397       1.53402053      -0.01903542
H       -3.53653500       0.66509900       1.79886100       1.25029774       0.35638526       0.08875449
H       -2.61618000       0.07990200       0.41602200       1.60687532      -1.56125983       0.00283438
F       -1.85325600       1.76996600       1.21449600       0.51795391       0.76731134       0.34650760
Br       1.24563700      -0.67499500      -0.54566000      -0.05892352      -0.03440908      -0.01513403
6
Properties=species:S:1:pos:R:3:forces:R:3 charge=-1.0 dipole_moment="0.5384642706092365 -3.5764018434188753 -1.7540636998559644" energy=-11.079203243893081 pbc="F F F"
C        0.75004500       0.27031400      -0.68189200       6.96069412       1.25000052      -5.87372212
H        1.82039000       0.03276700      -1.43970200      -3.01310739      -0.12425885       1.52206439
H        1.32011700       0.94306300      -0.22260400       1.31164066       2.20108507       4.28730147
H        0.24251500       0.84741200      -1.32225000      -2.30602877       2.03733561      -2.36848910
Br      -0.10803200      -1.12184500      -0.24931100      -3.02082893      -5.26946501       2.52674925
F       -0.45579800       3.97993700       1.75575600       0.06758916      -0.09471893      -0.09417437
6
Properties=species:S:1:pos:R:3:forces:R:3 charge=-1.0 dipole_moment="-2.2770759959167366 0.3568612354879376 0.7739851717148853" energy=-14.673321020392102 pbc="F F F"
C       -2.43423300       0.13128100       0.83903300      -0.04980433       3.62110803       2.18769631
H       -3.30579300       0.67917900       1.27035500      -0.07293140      -0.86594247      -0.93079649
H       -1.97973800      -0.31879900       1.67479200       0.63215101      -1.39382958       0.58145502
H       -2.46848300      -0.33010200      -0.05578200      -1.53616381      -3.01591915      -2.15406473
F       -1.57697900       1.11679600       0.41243800       1.04124698       1.71470996       0.30751373
Cl       2.15013100      -0.63936100      -0.68444200      -0.01460695      -0.05936832       0.00792260
6
Properties=species:S:1:pos:R:3:forces:R:3 charge=-1.0 dipole_moment="-0.8502607748455574 0.1082008642439886 0.4460487625563674" energy=-13.782036909301686 pbc="F F F"
C       -2.00227700       0.22760000       1.14323200       0.01058935      -5.38072231      -7.36091978
H       -2.76610800      -0.57596700       1.22221400       1.15015583       0.00161877       1.87042421
H       -1.12753700       0.45426100       1.65315400       1.07257896       0.12685567       1.53094138
H       -1.68776800      -0.05276000      -0.04608400       1.12822278      -0.92548768       3.59179539
F       -2.69541800       1.21180000       0.66193000      -3.50547934       6.19573945       0.37481390
Br       1.19582400      -0.34563800      -0.44703000       0.14267053      -0.01667566      -0.00771228
6
Properties=species:S:1:pos:R:3:forces:R:3 charge=-1.0 dipole_moment="0.6564813721091843 2.570473008541753 -1.030874248583102" energy=-11.646034672510048 pbc="F F F"
C        1.71448600       0.15822800       0.08750400      -5.24447029       2.14593748       4.31005471
H        1.90486100      -0.64540300      -0.40753700       0.49925171      -4.98479759      -3.09241770
H        1.76040200       0.03584100       1.16538400      -1.56885436      -1.29498814       0.19881828
H        2.46988900       0.78818900       0.15881200       2.92701862       4.41023004      -1.88186048
Br      -0.40117800       0.72778500      -0.36985900       3.21274174      -0.39204030       0.50980609
F       -0.26453800      -2.95560900       1.27815200       0.17408529       0.11529856      -0.04420344
6
Properties=species:S:1:pos:R:3:forces:R:3 charge=-1.0 dipole_moment="2.5791409312507887 0.1115082218100126 -2.315430760138404" energy=-13.179709279304603 pbc="F F F"
C        0.08000900      -0.65542500      -1.67854500       0.07630058      -0.02477875      -0.31672651
H        0.45297800      -1.68075900      -1.66488300      -0.07904394       0.24750315       0.05845403
H        0.45322500      -0.12987700      -2.56344300      -0.07339112      -0.14538921       0.30489789
H       -1.00685900      -0.64713600      -1.66948800       0.10824911       0.03217787       0.21255054
Br       0.72668000       0.25883300      -0.09711500      -0.05919451      -0.09151997      -0.16619818
F       -2.86813400      -0.29653500       2.15201000       0.02520093      -0.01913981      -0.09356348
6
Properties=species:S:1:pos:R:3:forces:R:3 charge=-1.0 dipole_moment="0.24107197004446348 -1.4653710726328606 -2.9644983595275884" energy=-12.943547156877218 pbc="F F F"
C       -0.24988800      -1.82762300      -3.50930000       0.95042275       0.89744517       0.57251016
H        0.36177300      -2.69003300      -3.69538100       0.17310570      -0.40908774       0.34684853
H       -0.25241200      -1.24856700      -4.43514200       0.01073333       0.45983824       0.58583567
H       -1.22653000      -2.05940200      -3.17365400      -0.83535611      -0.41525890      -0.05010875
Br       0.47038100      -0.85338900      -1.86882200      -0.30665807      -0.52467118      -1.43889537
Br      -0.39562400       1.33806700       2.79339300       0.00829335      -0.00802596      -0.01567293
6
Properties=species:S:1:pos:R:3:forces:R:3 charge=-1.0 dipole_moment="1.752147019999302 1.3221566690747049 3.063196259424272" energy=-12.238107152301145 pbc="F F F"
C        0.97449800       0.90660500       2.06607400      -6.90490735      -0.89986561       1.14827738
H        0.15868300       1.65309800       2.58147700       2.30284626      -1.61663626      -1.67121667
H        1.92083400       1.16836100       2.19804600       4.07612390       1.81608086      -0.54723569
H        0.89644500       0.00384800       2.66044700      -0.22556495      -0.15414742       0.22408194
I        0.14968400       0.08667400       0.16288400       0.60609442       0.75951370       0.62094871
F       -1.86179800      -1.42873800      -3.16325000       0.14521437       0.09497913       0.22494995
6
Properties=species:S:1:pos:R:3:forces:R:3 charge=-1.0 dipole_moment="-2.2921681299620174 2.807290393813283 0.09342623652504616" energy=-13.071792867101541 pbc="F F F"
C       -0.13424800       0.56286900       0.69110900      -1.77601741      -4.61810786      -4.36941172
H       -0.60496300      -0.18786700       1.41441700       0.37716389       1.03342311      -1.71891372
H        0.40564000       1.19930500       1.20264200       1.95281625       4.13740152       2.52067373
H        0.64712800       0.12223000      -0.06794600      -2.00222051       0.15608654       1.63027030
Cl      -1.44381700       1.39862000      -0.51344200       1.52965429      -0.85774425       1.91765487
F        2.76695200      -3.14304700       0.22586100      -0.08255299       0.14948858       0.01916192
6
Properties=species:S:1:pos:R:3:forces:R:3 charge=-1.0 dipole_moment="0.8788945537091669 0.6509514702587923 -1.9252260686128386" energy=-13.263637401444102 pbc="F F F"
C       -1.15371400      -0.48379500      -0.43422700       1.07970863       4.59235312       0.04465595
H       -1.02510100      -1.38280700      -0.86013000       0.06185098      -2.96355606      -1.25511753
H       -1.70654300       0.28481700      -0.91674300      -0.27977307       0.13312350      -1.99939744
H       -1.62140400      -0.33068900       0.47990200       0.44224366      -1.26659390       3.16732680
Br       0.72212500       0.37831600      -0.49819800      -1.10958742      -0.61423711       0.26156811
F       -1.55544800      -0.98995800       2.37102800      -0.19372338       0.11889553      -0.21944367
6
Properties=species:S:1:pos:R:3:forces:R:3 charge=-1.0 dipole_moment="0.6056962352113726 -0.0890658163100001 -2.138362773711637" energy=-13.153269504655855 pbc="F F F"
C       -1.06164000      -0.61456700      -1.10889300       0.31900245       2.71916291      -0.61547741
H       -1.64120700      -0.44037400      -0.18766600       0.90815021      -0.28907686       0.07569585
H       -1.03735900      -1.63666300      -1.46768800       0.29841768       0.15978687       0.01597992
H       -1.37995100       0.16358200      -1.86447000      -0.05174808      -1.50429807       0.56976010
Br       0.84763000       0.18440200      -0.90790000      -1.31010006      -1.03642565       0.07246758
Cl      -1.13168900      -0.05018900       2.46762900      -0.16311954      -0.04837788      -0.11871967
6
Properties=species:S:1:pos:R:3:forces:R:3 charge=-1.0 dipole_moment="1.305419852258992 -1.648202857237089 1.7543203508030878" energy=-12.258744741741577 pbc="F F F"
C        1.94385800      -1.83308100       0.25361600       2.64106719      -0.32656406       0.85498905
H        2.68746600      -2.29343000       0.99218000      -1.06228889       1.02313356      -0.61946930
H        2.38101900      -0.87326700      -0.11458800       0.14533059      -1.65831178      -0.66183080
H        1.82600000      -2.70959400      -0.44018700      -0.97785591       1.57887395       0.23288797
I        0.43885800      -0.79985100       1.32492800      -0.78708056      -0.59412028       0.17761902
Br      -1.19477400       1.69333900      -2.06229500       0.04038535      -0.02200453       0.01513043
6
Properties=species:S:1:pos:R:3:forces:R:3 charge=-1.0 dipole_moment="0.9391022200182784 1.0905553835677027 -2.3583808992566073" energy=-12.030311608838783 pbc="F F F"
C        2.17132700       0.22941200      -1.99806200       0.16648357       2.78791370      -0.67333906
H        2.86133900       0.97787300      -1.49992300      -0.69792138      -1.57040576       0.08784123
H        1.91640600       0.83550000      -2.88314200       0.89158100      -1.16315430      -0.43963759
H        2.61135700      -0.78100100      -2.20190400      -1.14779607       0.92104841       0.62635883
I        0.12318800       0.76055800      -1.28178900       0.79237600      -0.98738699       0.41243120
Br      -0.76988600      -1.22052700       2.47166200      -0.00382992       0.01321033      -0.01567653
6
Properties=species:S:1:pos:R:3:forces:R:3 charge=-1.0 dipole_moment="0.5054457293788952 1.2903769316942935 -1.2280112807205026" energy=-12.4820050812098 pbc="F F F"
C        0.18125700      -0.35722800      -1.88451300       1.53407967      -2.92439815       2.27153536
H       -0.83753300      -0.37565200      -2.01587900      -2.13682086       0.44850018      -1.31075466
H        0.32192200      -1.45404400      -1.50732100       0.14123122       2.34338844       0.72657427
H        0.88160900      -0.33632600      -2.67044600       0.19722574       0.95239685      -1.34977013
I        0.41876000       1.30430300      -0.53223900       0.32149848      -0.67083583      -0.31894074
Br      -0.67565200      -1.85196200       1.30598300      -0.05694171      -0.14840769      -0.01709732
6
Properties=species:S:1:pos:R:3:forces:R:3 charge=-1.0 dipole_moment="-1.195952666950124 0.4787704353715824 -0.5543999131281562" energy=-14.025926795065923 pbc="F F F"
C       -3.85636600       2.00207900      -1.55852600      -3.43992906       0.90437892       7.62372151
H       -4.52291900       1.46770100      -2.10092300      -3.62471374      -2.16185466      -0.15926957
H       -3.49552900       1.62269900      -0.56107300      -0.50933043       0.25946804      -1.45242040
H       -3.27711500       2.01969000      -2.26211700       8.43009871       0.12703153      -6.65859513
F       -4.25728900       3.31483100      -1.48228400      -0.82381391       0.86502047       0.65963559
I        1.37262900      -0.88596300       0.52105300      -0.03268181       0.00585029      -0.01241174
6
Properties=species:S:1:pos:R:3:forces:R:3 charge=-1.0 dipole_moment="-0.8684131406995289 -0.19203735135919686 0.02912220942895987" energy=-12.920464589178017 pbc="F F F"
C       -2.27973000      -0.52653800      -0.26147500       0.12690401      -1.23870977       2.28197250
H       -3.14210200      -1.14504100       0.01485800      -0.15698849       0.54120954      -0.36666196
H       -1.54067400      -1.16914400      -0.70738700       0.21042321       0.31764028      -0.55458751
H       -2.48844600       0.39072900      -0.76580900      -0.03103167       0.28677573      -0.32294858
Cl      -1.52375300      -0.14515900       1.37881800      -1.96428594      -0.16471105       0.10933103
I        0.88214000       0.14246000      -0.38514600       1.81633951       0.25801999      -1.14714353
6
Properties=species:S:1:pos:R:3:forces:R:3 charge=-1.0 dipole_moment="2.343355441539858 0.8322491701295959 2.3547861984652476" energy=-13.021821150073809 pbc="F F F"
C        0.92748200      -0.22748600       0.11721600      -1.66773231      -1.25766292       0.39638238
H        1.22376300      -1.29355800       0.15679500       0.14531105       0.85096733       0.00002417
H        1.24927600       0.26103600      -0.78237000       0.29069409       0.25361929      -0.09688997
H       -0.18847000      -0.22328300       0.17197400       1.00798359       0.18157338      -0.17834356
I        1.60743000       0.76812500       1.88347100       0.12141470      -0.04894969      -0.20901425
Br      -2.65837900      -1.08828300      -2.85924700       0.10276546       0.02068555       0.08868867
6
Properties=species:S:1:pos:R:3:forces:R:3 charge=-1.0 dipole_moment="-1.7285679418509983 3.6866453316956402 1.4393514291894367" energy=-12.914508312122761 pbc="F F F"
C       -1.25822800       0.83462200      -0.58350900       3.72839297       0.77363214      -1.34439343
H       -0.42440800       0.26090600      -1.12252300      -0.67295854       1.28145745       0.99285419
H       -1.65160700       1.57171500      -1.29011900      -0.09332540      -0.07520272       0.72384016
H       -1.87021200       0.04969000      -0.33632500      -2.02017864      -1.18811457       1.22326670
Br      -0.45737000       1.75256300       1.08031600      -0.89242689      -0.85352712      -1.59024182
Cl       1.61785600      -4.01351500      -1.85653100      -0.04907876       0.06276012      -0.00487481
6
Properties=species:S:1:pos:R:3:forces:R:3 charge=-1.0 dipole_moment="1.5395881764144395 -2.958820288058239 -1.8806905145717858" energy=-12.361756697132915 pbc="F F F"
C        0.27545700      -1.72222400      -0.94517700       0.89093205      -3.65201629       5.54534852
H        0.04147900      -2.63635400      -0.13768000      -0.16664246       2.45190289      -2.31199990
H       -0.22786800      -1.81153900      -1.82672300      -3.10326056       1.34559363      -1.22060972
H        0.66473100      -0.95653600      -0.29705000      -1.86805057       1.44005853      -0.34487186
Cl       1.75369500      -2.18925600      -1.61202500       4.23196670      -1.54944973      -1.65147471
Cl      -1.87905300       3.11500700       2.07864300       0.01548987      -0.03637494      -0.01643192
6
Properties=species:S:1:pos:R:3:forces:R:3 charge=-1.0 dipole_moment="-2.185486004312347 -1.4431932557381302 -0.7895112310728284" energy=-12.78711308897348 pbc="F F F"
C       -3.01023300      -2.06516800      -1.71075900      -0.74760641       2.41203587      -4.01556207
H       -2.82288800      -3.00451600      -2.23646300       0.14529819      -0.22369422       0.92302045
H       -2.12079800      -1.38523600      -1.74532500      -0.93349512      -0.52140588      -2.03267883
H       -4.02248600      -1.64452900      -2.21403400       2.64375245      -0.58927169       1.01381022
Cl      -3.11553500      -1.93266000      -0.06238200      -1.10147302      -1.07145693       4.13242335
Br       2.28547600       1.46515700       0.50059700      -0.00635937      -0.00592177      -0.02041919
6
Properties=species:S:1:pos:R:3:forces:R:3 charge=-1.0 dipole_moment="0.9454311794566219 0.5755035002854421 -1.1098338385257538" energy=-13.252363543160252 pbc="F F F"
C        1.97000900       1.40329500      -2.30120800       2.33501076       3.29084723      -2.36470546
H        2.77567700       2.27647400      -2.39110800      -2.69009967      -1.11912776       0.65387941
H        2.34178300       0.84482700      -1.54872400       0.83740785      -2.11418332       2.49277572
H        0.91471600       1.61223900      -2.12853400       0.27758763       0.18522537      -0.69543872
Cl       2.46569700       0.56308700      -3.82540000      -0.80569843      -0.28846288      -0.03613120
I       -1.12771800      -0.42878800       1.60202700       0.04635185       0.04534141      -0.05154651
6
Properties=species:S:1:pos:R:3:forces:R:3 charge=-1.0 dipole_moment="-1.9757392084244207 -1.3295778502756523 -4.1873147075719865" energy=-11.895128128522074 pbc="F F F"
C        0.40872900       0.46621000       0.90949300       6.43427151      -3.33561168      -2.92252433
H        0.00949900       0.93831800       1.69583300      -3.00041128       1.56975064       2.40824504
H        1.42727100       1.16300800       0.72052700      -2.82477510      -2.22320633      -0.11918401
H        0.75861300      -0.62797800       1.20590800      -0.42240194       2.86026609      -0.03059304
I       -0.47420300      -0.33709200      -0.97899200      -0.07527008       1.16220042       0.86668757
F        2.27611200       1.51058400       4.75637100      -0.11166610      -0.03336984      -0.20292587
